Ga Fe  O                                
   1.00000000000000     
    11.8609006217508721    0.0000000000000000   -2.9126240731473736
     0.0000000000000000   12.1318613217336004    0.0000000000000000
     0.0000000000000000    0.0000000000000000   11.5777857733786895
   Ga   Fe   O 
    63     1    96
Direct
  0.0901109758987045  0.9998824154032490  0.3960266665124717
  0.4107668881705309  0.6252331312277692  0.6041146380701277
  0.5891662661281506  0.6251184279852160  0.8958552922907065
  0.1596985213890782  0.6250402034265352  0.6552785036228422
  0.8402584987643369  0.6249902796150609  0.8443212854798954
  0.9101591996375781  0.5001010165824262  0.6036100920419423
  0.0893720799841769  0.5005829208901831  0.8947598472398878
  0.8405735656449315  0.3754029987062698  0.8440904242448704
  0.9113342904522223  0.2500626395458795  0.6042171433407975
  0.0886642980582755  0.2500618990960112  0.8966525996962548
  0.8403167705485802  0.6249696632810123  0.3443478636877213
  0.6596878595338501  0.9998466200534150  0.6563462241549416
  0.1592643487612776  0.6259734732984022  0.1552339978919174
  0.0880702747733226  0.2500769504716243  0.4016834504542912
  0.9114232212421768  0.2500857787012288  0.1038209163824313
  0.8403978487419761  0.3752172584489386  0.3439694660568577
  0.1599324194378202  0.3789246344241921  0.1520881046845110
  0.5896511847506920  0.3769601838067587  0.3963240086187859
  0.4117485447250950  0.3752705308356534  0.1027140309376608
  0.6599827320271944  0.2501282227479787  0.1548739407010762
  0.4109014580873873  0.6252287023560023  0.1035662797476173
  0.3403836825379701  0.5023351196635274  0.3426281589831310
  0.5892828488021762  0.6253546767889930  0.3959034212119909
  0.3407223692712825  0.9996810365506585  0.8439741249506719
  0.4116346927425448  0.1249893102815894  0.6060879954845556
  0.5893692306340146  0.1250091337562095  0.8960563828911997
  0.9103963702522483  0.0004298022224828  0.1040638737505789
  0.8403816915207039  0.1249905886401037  0.3440021804754927
  0.1600163242781264  0.1211883672088243  0.1520144971686200
  0.5896316621417448  0.1232774453170468  0.3963105941950912
  0.4117683287803724  0.1249196386184655  0.1026704661163429
  0.3403738873194828  0.9979292403683071  0.3422207661028203
  0.6595316474659892  0.9997032684710921  0.1556148406145131
  0.0901308553319636  0.5002639467244177  0.3960299152410817
  0.6595130406949298  0.5005247655409025  0.1556228899106316
  0.6601273604129994  0.2501000457522338  0.6564465732299463
  0.9103870621431678  0.4997513125425144  0.1040618791215228
  0.4115393474600700  0.3754013454765444  0.6060668178061662
  0.5894568384808490  0.3753379239598719  0.8960503731443882
  0.1595401855878502  0.3759094217295584  0.6571800845715564
  0.6596910256323623  0.5003350068957463  0.6563284182973527
  0.3407303928810799  0.5005416814021817  0.8439964410512445
  0.0893154747979979  0.9995229781885117  0.8947234555616905
  0.9101342049889484  0.0000139967603458  0.6036100248606785
  0.8405498219131449  0.1247797498432470  0.8441198839374315
  0.1595269829833654  0.1242493818721957  0.6571788211282029
  0.3402656859952712  0.2501423265682484  0.8446378343687401
  0.0882739582975336  0.7500821641812772  0.3959619692678800
  0.9112086087920522  0.7500756803125612  0.1039481745543213
  0.8403292039179521  0.8752385243930055  0.3443294814944196
  0.1591837860038512  0.8741711602617052  0.1552168726870980
  0.5893541086997193  0.8749108799894152  0.3959236808278869
  0.4108537958838572  0.8750551720193763  0.1035310623870839
  0.3401724120601378  0.7501582718435855  0.3450373450394538
  0.6598298919380987  0.7501317961064776  0.1549769728090873
  0.0885492669396493  0.7500553152768750  0.8954249580247644
  0.9114972442033025  0.7500620088481987  0.6040699193422731
  0.8402607565730082  0.8751777819646682  0.8443139855058218
  0.1596757428283432  0.8751367786723308  0.6553057627156329
  0.5892383620567905  0.8752244873550167  0.8958797993488020
  0.4106432375179772  0.8750869641511679  0.6040463928082425
  0.3402217177892633  0.7501323958116218  0.8445581743925692
  0.6598977048710951  0.7501013994859641  0.6551132808973290
  0.3410305274719828  0.2501851874481403  0.3454001603827342
  0.6722387334011557  0.3753606245534806  0.7803422961251445
  0.3276714500856140  0.3754225063460927  0.7196818935162552
  0.5027472965916210  0.2502216290093361  0.8723222952706775
  0.1649919685261644  0.5013871722916092  0.0516342087033574
  0.4972062766137792  0.5001885472883183  0.1283594835504832
  0.9973901542656630  0.6242434347128367  0.1279091770092579
  0.5027684079650162  0.5000563701987827  0.8719422408494493
  0.4970990111796909  0.5001292060280901  0.6270117651931355
  0.3358541357386078  0.6244996217021498  0.9470389371015698
  0.6639262286742540  0.6241658693448601  0.5526114632370949
  0.1725163784569916  0.5000332957667157  0.7800473524847741
  0.8275172787416921  0.4996456226755467  0.7192895319745313
  0.0024957547362970  0.6245946444376141  0.8719778942405613
  0.9974098475802925  0.6243007014127426  0.6275043069785231
  0.8360600416484625  0.4997174921064875  0.9473306757814237
  0.1650714706789515  0.4996326283290184  0.5525420420801760
  0.6723377477621157  0.6243364905215757  0.2806432384749132
  0.3274288783904791  0.6245520649905033  0.2189704462808879
  0.5019907438734100  0.5002729874139844  0.3718636558348489
  0.4970829914074177  0.2502094126021117  0.6266818245585988
  0.3356144010233488  0.6244088051806762  0.4471572098342417
  0.6640115443267595  0.6244621322008796  0.0526935650364285
  0.1731120495461339  0.4991929116188295  0.2800167829225918
  0.8274581194899209  0.4992596415592237  0.2194821049048141
  0.0027914626246823  0.6241781041846800  0.3718075420157675
  0.8356977915095044  0.4996745049211666  0.4467952405524795
  0.3354191514448072  0.3757495978639805  0.9470363524775733
  0.6714615226985763  0.3744326679190664  0.2811749709099368
  0.1725147150102063  0.2501008446669684  0.7820334408365802
  0.1724985305479396  0.0001531653259271  0.7800388481543297
  0.8275163202681695  0.0004821843896407  0.7193044609798727
  0.0031857657944366  0.1243970885958903  0.8730026506747777
  0.9973502708371652  0.1244492240941330  0.6274344300449070
  0.8360487292757262  0.0004468177243050  0.9473307234993463
  0.1650952446773514  0.0005213952250855  0.5525329991211476
  0.6714760974222058  0.1258460583636535  0.2811984975580619
  0.3272326525362009  0.1252505322191771  0.2182545540678984
  0.6630475783814198  0.1252004166157105  0.5524296365359385
  0.5019904805774000 -0.0000569905955289  0.3718935630706518
  0.3376652449390056  0.1255544781809786  0.4464190439486846
  0.6636842248401230  0.1244519320368765  0.0530357967027674
  0.1730704380496527  0.0010028672750644  0.2800226405057011
  0.8274652271883797  0.0009423694676000  0.2194877260137655
  0.0037303371593087  0.1249520365055370  0.3711593249307419
  0.9988981170512132  0.1250135297420597  0.1294257043314697
  0.8356757435908277  0.0004995163134932  0.4467980209679095
  0.1648727452966717  0.9986681331017221  0.0515773757908865
  0.4972653353489120  0.0000058944795824  0.1283193464260844
  0.3354743780732686  0.1245096082865395  0.9469645752660136
  0.4970224100457539  0.0001640825795450  0.6268966313643994
  0.5027630622677303  0.0002152662188513  0.8719357649111174
  0.8276928550664677  0.2500576086409973  0.7191300277409528
  0.0032049479156456  0.3757362511930676  0.8730009303368930
  0.9973619327160674  0.3756663552812505  0.6274472077698982
  0.8367299313812456  0.2501359888699376  0.9471442543113493
  0.1656098904912651  0.2500738099707336  0.5555240015628474
  0.3275962981209112  0.6245579591554480  0.7191828356251069
  0.3272946146361280  0.3744353025360533  0.2185822009071704
  0.4978102116539459  0.2501272584974210  0.3725215181058425
  0.4973984561712040  0.2501296997646589  0.1290190495415041
  0.3375502117894703  0.3751583204010763  0.4466788333902972
  0.6637136525819888  0.3758030347059686  0.0530381040431862
  0.1837383485822947  0.2500999894817281  0.2925293265012027
  0.8275605830830173  0.2501206651098855  0.2187858270257658
  0.0037461328738723  0.3752068745703704  0.3711300377690716
  0.9988830652414915  0.3751737309949580  0.1294320194103094
  0.8374781373230374  0.2501298151622792  0.4468734937855451
  0.1625907213248449  0.2500963363934360  0.0555655290635919
  0.6721935481941432  0.1248724516868574  0.7803578446833569
  0.3276731318017217  0.1247478403292298  0.7195848810840791
  0.6630873583735654  0.3749710717739969  0.5524278274821817
  0.6723830376853162  0.6244479766451467  0.7805267326927515
  0.1636320476037675  0.7500942281320394  0.0524506144671779
  0.8364984328601180  0.7501310086683703  0.4470668844064409
  0.9973525544147430  0.8759192978559687  0.1279270781194307
  0.0027804424505837  0.8759818579106540  0.3718234977749773
  0.8275408525057076  0.7501004026531608  0.2190618513530250
  0.1724470204312487  0.7501347346772665  0.2808556183505773
  0.6641067989989674  0.8757782600792005  0.0526967961115142
  0.3355679312737163  0.8760101167452399  0.4470749372138105
  0.4973660053157227  0.7501845029838184  0.1278426950413059
  0.5023762333439101  0.7501706345115199  0.3721920617144679
  0.3273944483315077  0.8755647611896584  0.2189249426682709
  0.6723569055635340  0.8759294783252161  0.2806353239595024
  0.1638176054367990  0.7501248669674779  0.5525800038747717
  0.8363312768447508  0.7501117125110320  0.9471002606906306
  0.9974004204702211  0.8758352474764010  0.6275154556652827
  0.0024732594644502  0.8755008800058360  0.8719499215459640
  0.8274541331067238  0.7500600624134444  0.7188984171423555
  0.1724624737320715  0.7501086978591139  0.7806761544833797
  0.6639791593958581  0.8760167504001025  0.5526299169088568
  0.3357884182854520  0.8757779182007238  0.9470274499217134
  0.4973113079906443  0.7502238043094883  0.6272879325612738
  0.5026554398493299  0.7502171648909089  0.8721864531539686
  0.3275751552565551  0.8756330200544505  0.7191911361175292
  0.6723902773354677  0.8758099305310941  0.7805123304756499
 
  0.00000000E+00  0.00000000E+00  0.00000000E+00
  0.00000000E+00  0.00000000E+00  0.00000000E+00
  0.00000000E+00  0.00000000E+00  0.00000000E+00
  0.00000000E+00  0.00000000E+00  0.00000000E+00
  0.00000000E+00  0.00000000E+00  0.00000000E+00
  0.00000000E+00  0.00000000E+00  0.00000000E+00
  0.00000000E+00  0.00000000E+00  0.00000000E+00
  0.00000000E+00  0.00000000E+00  0.00000000E+00
  0.00000000E+00  0.00000000E+00  0.00000000E+00
  0.00000000E+00  0.00000000E+00  0.00000000E+00
  0.00000000E+00  0.00000000E+00  0.00000000E+00
  0.00000000E+00  0.00000000E+00  0.00000000E+00
  0.00000000E+00  0.00000000E+00  0.00000000E+00
  0.00000000E+00  0.00000000E+00  0.00000000E+00
  0.00000000E+00  0.00000000E+00  0.00000000E+00
  0.00000000E+00  0.00000000E+00  0.00000000E+00
  0.00000000E+00  0.00000000E+00  0.00000000E+00
  0.00000000E+00  0.00000000E+00  0.00000000E+00
  0.00000000E+00  0.00000000E+00  0.00000000E+00
  0.00000000E+00  0.00000000E+00  0.00000000E+00
  0.00000000E+00  0.00000000E+00  0.00000000E+00
  0.00000000E+00  0.00000000E+00  0.00000000E+00
  0.00000000E+00  0.00000000E+00  0.00000000E+00
  0.00000000E+00  0.00000000E+00  0.00000000E+00
  0.00000000E+00  0.00000000E+00  0.00000000E+00
  0.00000000E+00  0.00000000E+00  0.00000000E+00
  0.00000000E+00  0.00000000E+00  0.00000000E+00
  0.00000000E+00  0.00000000E+00  0.00000000E+00
  0.00000000E+00  0.00000000E+00  0.00000000E+00
  0.00000000E+00  0.00000000E+00  0.00000000E+00
  0.00000000E+00  0.00000000E+00  0.00000000E+00
  0.00000000E+00  0.00000000E+00  0.00000000E+00
  0.00000000E+00  0.00000000E+00  0.00000000E+00
  0.00000000E+00  0.00000000E+00  0.00000000E+00
  0.00000000E+00  0.00000000E+00  0.00000000E+00
  0.00000000E+00  0.00000000E+00  0.00000000E+00
  0.00000000E+00  0.00000000E+00  0.00000000E+00
  0.00000000E+00  0.00000000E+00  0.00000000E+00
  0.00000000E+00  0.00000000E+00  0.00000000E+00
  0.00000000E+00  0.00000000E+00  0.00000000E+00
  0.00000000E+00  0.00000000E+00  0.00000000E+00
  0.00000000E+00  0.00000000E+00  0.00000000E+00
  0.00000000E+00  0.00000000E+00  0.00000000E+00
  0.00000000E+00  0.00000000E+00  0.00000000E+00
  0.00000000E+00  0.00000000E+00  0.00000000E+00
  0.00000000E+00  0.00000000E+00  0.00000000E+00
  0.00000000E+00  0.00000000E+00  0.00000000E+00
  0.00000000E+00  0.00000000E+00  0.00000000E+00
  0.00000000E+00  0.00000000E+00  0.00000000E+00
  0.00000000E+00  0.00000000E+00  0.00000000E+00
  0.00000000E+00  0.00000000E+00  0.00000000E+00
  0.00000000E+00  0.00000000E+00  0.00000000E+00
  0.00000000E+00  0.00000000E+00  0.00000000E+00
  0.00000000E+00  0.00000000E+00  0.00000000E+00
  0.00000000E+00  0.00000000E+00  0.00000000E+00
  0.00000000E+00  0.00000000E+00  0.00000000E+00
  0.00000000E+00  0.00000000E+00  0.00000000E+00
  0.00000000E+00  0.00000000E+00  0.00000000E+00
  0.00000000E+00  0.00000000E+00  0.00000000E+00
  0.00000000E+00  0.00000000E+00  0.00000000E+00
  0.00000000E+00  0.00000000E+00  0.00000000E+00
  0.00000000E+00  0.00000000E+00  0.00000000E+00
  0.00000000E+00  0.00000000E+00  0.00000000E+00
  0.00000000E+00  0.00000000E+00  0.00000000E+00
  0.00000000E+00  0.00000000E+00  0.00000000E+00
  0.00000000E+00  0.00000000E+00  0.00000000E+00
  0.00000000E+00  0.00000000E+00  0.00000000E+00
  0.00000000E+00  0.00000000E+00  0.00000000E+00
  0.00000000E+00  0.00000000E+00  0.00000000E+00
  0.00000000E+00  0.00000000E+00  0.00000000E+00
  0.00000000E+00  0.00000000E+00  0.00000000E+00
  0.00000000E+00  0.00000000E+00  0.00000000E+00
  0.00000000E+00  0.00000000E+00  0.00000000E+00
  0.00000000E+00  0.00000000E+00  0.00000000E+00
  0.00000000E+00  0.00000000E+00  0.00000000E+00
  0.00000000E+00  0.00000000E+00  0.00000000E+00
  0.00000000E+00  0.00000000E+00  0.00000000E+00
  0.00000000E+00  0.00000000E+00  0.00000000E+00
  0.00000000E+00  0.00000000E+00  0.00000000E+00
  0.00000000E+00  0.00000000E+00  0.00000000E+00
  0.00000000E+00  0.00000000E+00  0.00000000E+00
  0.00000000E+00  0.00000000E+00  0.00000000E+00
  0.00000000E+00  0.00000000E+00  0.00000000E+00
  0.00000000E+00  0.00000000E+00  0.00000000E+00
  0.00000000E+00  0.00000000E+00  0.00000000E+00
  0.00000000E+00  0.00000000E+00  0.00000000E+00
  0.00000000E+00  0.00000000E+00  0.00000000E+00
  0.00000000E+00  0.00000000E+00  0.00000000E+00
  0.00000000E+00  0.00000000E+00  0.00000000E+00
  0.00000000E+00  0.00000000E+00  0.00000000E+00
  0.00000000E+00  0.00000000E+00  0.00000000E+00
  0.00000000E+00  0.00000000E+00  0.00000000E+00
  0.00000000E+00  0.00000000E+00  0.00000000E+00
  0.00000000E+00  0.00000000E+00  0.00000000E+00
  0.00000000E+00  0.00000000E+00  0.00000000E+00
  0.00000000E+00  0.00000000E+00  0.00000000E+00
  0.00000000E+00  0.00000000E+00  0.00000000E+00
  0.00000000E+00  0.00000000E+00  0.00000000E+00
  0.00000000E+00  0.00000000E+00  0.00000000E+00
  0.00000000E+00  0.00000000E+00  0.00000000E+00
  0.00000000E+00  0.00000000E+00  0.00000000E+00
  0.00000000E+00  0.00000000E+00  0.00000000E+00
  0.00000000E+00  0.00000000E+00  0.00000000E+00
  0.00000000E+00  0.00000000E+00  0.00000000E+00
  0.00000000E+00  0.00000000E+00  0.00000000E+00
  0.00000000E+00  0.00000000E+00  0.00000000E+00
  0.00000000E+00  0.00000000E+00  0.00000000E+00
  0.00000000E+00  0.00000000E+00  0.00000000E+00
  0.00000000E+00  0.00000000E+00  0.00000000E+00
  0.00000000E+00  0.00000000E+00  0.00000000E+00
  0.00000000E+00  0.00000000E+00  0.00000000E+00
  0.00000000E+00  0.00000000E+00  0.00000000E+00
  0.00000000E+00  0.00000000E+00  0.00000000E+00
  0.00000000E+00  0.00000000E+00  0.00000000E+00
  0.00000000E+00  0.00000000E+00  0.00000000E+00
  0.00000000E+00  0.00000000E+00  0.00000000E+00
  0.00000000E+00  0.00000000E+00  0.00000000E+00
  0.00000000E+00  0.00000000E+00  0.00000000E+00
  0.00000000E+00  0.00000000E+00  0.00000000E+00
  0.00000000E+00  0.00000000E+00  0.00000000E+00
  0.00000000E+00  0.00000000E+00  0.00000000E+00
  0.00000000E+00  0.00000000E+00  0.00000000E+00
  0.00000000E+00  0.00000000E+00  0.00000000E+00
  0.00000000E+00  0.00000000E+00  0.00000000E+00
  0.00000000E+00  0.00000000E+00  0.00000000E+00
  0.00000000E+00  0.00000000E+00  0.00000000E+00
  0.00000000E+00  0.00000000E+00  0.00000000E+00
  0.00000000E+00  0.00000000E+00  0.00000000E+00
  0.00000000E+00  0.00000000E+00  0.00000000E+00
  0.00000000E+00  0.00000000E+00  0.00000000E+00
  0.00000000E+00  0.00000000E+00  0.00000000E+00
  0.00000000E+00  0.00000000E+00  0.00000000E+00
  0.00000000E+00  0.00000000E+00  0.00000000E+00
  0.00000000E+00  0.00000000E+00  0.00000000E+00
  0.00000000E+00  0.00000000E+00  0.00000000E+00
  0.00000000E+00  0.00000000E+00  0.00000000E+00
  0.00000000E+00  0.00000000E+00  0.00000000E+00
  0.00000000E+00  0.00000000E+00  0.00000000E+00
  0.00000000E+00  0.00000000E+00  0.00000000E+00
  0.00000000E+00  0.00000000E+00  0.00000000E+00
  0.00000000E+00  0.00000000E+00  0.00000000E+00
  0.00000000E+00  0.00000000E+00  0.00000000E+00
  0.00000000E+00  0.00000000E+00  0.00000000E+00
  0.00000000E+00  0.00000000E+00  0.00000000E+00
  0.00000000E+00  0.00000000E+00  0.00000000E+00
  0.00000000E+00  0.00000000E+00  0.00000000E+00
  0.00000000E+00  0.00000000E+00  0.00000000E+00
  0.00000000E+00  0.00000000E+00  0.00000000E+00
  0.00000000E+00  0.00000000E+00  0.00000000E+00
  0.00000000E+00  0.00000000E+00  0.00000000E+00
  0.00000000E+00  0.00000000E+00  0.00000000E+00
  0.00000000E+00  0.00000000E+00  0.00000000E+00
  0.00000000E+00  0.00000000E+00  0.00000000E+00
  0.00000000E+00  0.00000000E+00  0.00000000E+00
  0.00000000E+00  0.00000000E+00  0.00000000E+00
  0.00000000E+00  0.00000000E+00  0.00000000E+00
  0.00000000E+00  0.00000000E+00  0.00000000E+00
  0.00000000E+00  0.00000000E+00  0.00000000E+00
  0.00000000E+00  0.00000000E+00  0.00000000E+00
  0.00000000E+00  0.00000000E+00  0.00000000E+00
