This file is generated by VASPKIT code
 1.000000
11.86090062 0   -2.912624073
0   3.03296533  0
0   0   5.788892887
   Ga   O
     8    12
Direct
    0.8415439767947116    0.5000000000000000    0.6859565695489152     Ga1
    0.6584560232052884    0.0000000000000000    0.3140434304510848     Ga2
    0.9101346063883383    0.0000000000000000    0.2053067352776189     Ga3
    0.5898653936116617    0.5000000000000000    0.7946932647223811     Ga4
    0.3415439767947115    0.0000000000000000    0.6859565695489152     Ga5
    0.1584560232052885    0.5000000000000000    0.3140434304510848     Ga6
    0.4101346063883384    0.5000000000000000    0.2053067352776189     Ga7
    0.0898653936116616    0.0000000000000000    0.7946932647223811     Ga8
    0.5040144628919846    0.0000000000000000    0.7433082397264091      O1
    0.9959855371080154    0.5000000000000000    0.2566917602735909      O2
    0.8263349258481845    0.0000000000000000    0.4357029470190648      O3
    0.6736650741518155    0.5000000000000000    0.5642970529809352      O4
    0.6634784701485551    0.5000000000000000    0.1090079738135759      O5
    0.8365215298514449    0.0000000000000000    0.8909920261864241      O6
    0.0040144628919845    0.5000000000000000    0.7433082397264091      O7
    0.4959855371080155    0.0000000000000000    0.2566917602735909      O8
    0.3263349258481845    0.5000000000000000    0.4357029470190648      O9
    0.1736650741518155    0.0000000000000000    0.5642970529809352     O10
    0.1634784701485552    0.0000000000000000    0.1090079738135759     O11
    0.3365215298514448    0.5000000000000000    0.8909920261864241     O12