Ga  O                                   
   1.00000000000000     
    11.8609006217508721    0.0000000000000000   -2.9126240731473736
     0.0000000000000000   12.1318613217336004    0.0000000000000000
     0.0000000000000000    0.0000000000000000   11.5777857733786895
   Ga   O 
    63    96
Direct
  0.5008486586077048  0.3760827615077878  0.4977123564791597
  0.0910359307432298  0.9998591765794800  0.3960545517756098
  0.4119129187031585  0.6144296668421244  0.6015627799362316
  0.5902409104517548  0.6243255452127332  0.8983352868422864
  0.1603613583238477  0.6249924946066864  0.6547870976370497
  0.8408794187648485  0.6255803954928301  0.8448169071577374
  0.9090547552320111  0.5011260489343774  0.6047220821547417
  0.0883563239916821  0.5005078369381890  0.8944147456329836
  0.8406872226679321  0.3749520169765989  0.8482899992973244
  0.9105310793657889  0.2487362991320148  0.6047987168054151
  0.0872804845858844  0.2492047026777806  0.8944143673886757
  0.8399667410950752  0.6246436690661610  0.3434602358709111
  0.6568885481152712  0.0009874236238594  0.6539879806880439
  0.1592166131470083  0.6258877788399341  0.1548010860587488
  0.0857741045576905  0.2500455802714320  0.3936426672512764
  0.9128471344054722  0.2485185457750155  0.1056371962983892
  0.8332326271595457  0.3749310697123200  0.3479998005170682
  0.1587320116829131  0.3749676700441310  0.1520432840321492
  0.4136060684366112  0.3748816250509699  0.1064924738229603
  0.3371117550432580  0.2493443521235543  0.3421578186271227
  0.6613756515765574  0.2547239178241853  0.1601680666096558
  0.4115897967316566  0.6250299353432058  0.1051404579547580
  0.3370862505438483  0.5010243712737917  0.3406038384194826
  0.5890257091182176  0.6138865944576987  0.3983936515135132
  0.3418515819696531  0.9995610055084828  0.8420365343278383
  0.4133395151353338  0.1355567596137482  0.6021903185356298
  0.5906589340273832  0.1248044953456164  0.8984352099542072
  0.9092705543531862  0.9995947433861878  0.1038322222605570
  0.8397266742307082  0.1246855954593840  0.3431963866886669
  0.1594842466271293  0.1238132167250090  0.1555222864327780
  0.5877173749703909  0.1358133820364950  0.3978607534990880
  0.4112321608243674  0.1245710815842266  0.1050791854727669
  0.3432462301998011  0.0010044013051919  0.3462921903818766
  0.6587534176512647  0.0014006382897952  0.1581169505500545
  0.0872067625372454  0.4999581205391952  0.3937908840576616
  0.6612639960768033  0.4953586897116141  0.1604441922436379
  0.6613289551716904  0.2498063969073201  0.6591043793753524
  0.9118588708094806  0.5012677856704084  0.1055658144939321
  0.5859477298746707  0.3746024534395886  0.8935173755249940
  0.1546206602729045  0.3751887647780470  0.6487131595095673
  0.6613223011114799  0.5006062327361198  0.6605969434689133
  0.3414412570919292  0.5040554779341673  0.8470647710250038
  0.0909546476221696  0.9994825775045466  0.8963055337369986
  0.9096209238887715  0.0001128215798899  0.6036284418455279
  0.8406130383222578  0.1240177428834238  0.8441423985975088
  0.1605904822850899  0.1248018944262642  0.6549275294081121
  0.3412271549867955  0.2457243377793923  0.8476987656556995
  0.0897353561969945  0.7505393951776287  0.3958282065993180
  0.9106856628996779  0.7510513288385341  0.1040550215198753
  0.8403193255524611  0.8753371485216470  0.3439328722333688
  0.1605941249479493  0.8754709286173896  0.1576000989283434
  0.5869235943249478  0.8745274915866933  0.3951941836077014
  0.4099870761788699  0.8751596700814351  0.1033685711949194
  0.3426883651176166  0.7489462172596327  0.3467912667031908
  0.6592272092390866  0.7487888068349455  0.1573821544713986
  0.0894876316415178  0.7509741758963826  0.8960143747695649
  0.9109341450404818  0.7501510034986494  0.6039221724920121
  0.8394320478347398  0.8754405900295701  0.8424074762734763
  0.1594341841430213  0.8754442455614669  0.6558281569469623
  0.5902382476881154  0.8749606029407241  0.8972335852835414
  0.4131524352370441  0.8745832720328089  0.6041731757938420
  0.3413691478924342  0.7506868747285960  0.8428840362588488
  0.6574543179814804  0.7488663654003728  0.6533866525801969
  0.6784353122547085  0.3754059732285321  0.7900630035882146
  0.3186094491149660  0.3752407002863398  0.7276782716380491
  0.5015542784703629  0.2477694581508632  0.8709098303687013
  0.1618013536276651  0.5014387969652520  0.0506392972305424
  0.4970160971841773  0.5007879553809695  0.1267066380074047
  0.9979469645699348  0.6267684603468745  0.1270133197389758
  0.5015687773128227  0.5011106582178378  0.8706502515366707
  0.5016137839834881  0.4955233595710634  0.6219385759001321
  0.3354287863044368  0.6267355852288173  0.9480483223589011
  0.6687407477196017  0.6249703958398131  0.5540385205265123
  0.1724127380350320  0.5001912155235821  0.7802199056866385
  0.8297339030875499  0.5012528441682691  0.7222153583263147
  0.0032374632102248  0.6259945295133219  0.8715889205940609
  0.9976510164528555  0.6250128689089050  0.6290835758033003
  0.8397172434219006  0.5015671602103295  0.9487609540663233
  0.1607514662651131  0.5003365935262624  0.5513693580066958
  0.6722346069780163  0.6247210446198891  0.2822084467957072
  0.3256551671110214  0.6257027887262033  0.2174638215616515
  0.4964123171297894  0.4969358575100407  0.3788704796252183
  0.5013974426395907  0.2564900792429932  0.6219879520829336
  0.3300232777735064  0.6257091168887631  0.4469641819465414
  0.6636926264718179  0.6236067598839917  0.0546959881535947
  0.1693775349957472  0.5010347502703667  0.2779988931442532
  0.8314717295587573  0.5060331357953233  0.2198625591337019
  0.0033248318526291  0.6260667830579838  0.3723228961554398
  0.8383081140830758  0.5016497969134767  0.4484638745214470
  0.3374178800609275  0.3755403578034595  0.9464453228796235
  0.6808515179052220  0.3752834076910879  0.2709180657776218
  0.1724212918527333  0.2492870673375742  0.7807251703011391
  0.1733111105639763  0.9996337717120847  0.7804125543050099
  0.8271492585346746  0.9992745956060900  0.7193177451207746
  0.0031054724387961  0.1227853357697973  0.8714107081429527
  0.9978322994357243  0.1236302333620788  0.6290617827796627
  0.8353011256500911  0.9993174659569117  0.9470611414017173
  0.1639967683092328  0.9994767212967157  0.5531437397803576
  0.6715701353944893  0.1245041011346666  0.2822903507052223
  0.3262792473429760  0.1236525854379537  0.2181750354792830
  0.6673207391085318  0.1238336091985669  0.5535706261131834
  0.5044368181745370  0.0028050647821059  0.3727638542217740
  0.3313260186069273  0.1232503210324335  0.4475620752962408
  0.6637517111897986  0.1250559355172730  0.0547332722165848
  0.1731687129867467  0.9990539834334894  0.2804487653551408
  0.8272574764684858  0.9986957482202768  0.2195323877508593
  0.0032529405402999  0.1227754435641079  0.3722573796057641
  0.9981169784063294  0.1222138786059426  0.1272253615601710
  0.8367890478998349  0.9994801990873190  0.4470129203006313
  0.1652309861013881  0.9990732088402003  0.0526864243108510
  0.4966387094244743  0.9995156150035296  0.1274948804832299
  0.3353641610732847  0.1220880897300596  0.9480139643484821
  0.4953437860000727  0.0027514482946260  0.6276761543864676
  0.5035329372854817  0.9998486629705986  0.8728169413558041
  0.8295589847230421  0.2480079295179979  0.7213801947968098
  0.0028026012813397  0.3754644672591734  0.8718191089308430
  0.9952944494058994  0.3756466377309944  0.6289613946918553
  0.8403826091488195  0.2476146647958483  0.9486078217888050
  0.1597113114736931  0.2496578037613581  0.5513585617799514
  0.3276903829258779  0.6236179568638013  0.7188126761146217
  0.3205403422195287  0.3755032546067451  0.2090124703320721
  0.4965323553701421  0.2545935857138464  0.3791001195553328
  0.4969367960691945  0.2486888932914085  0.1264626169364799
  0.3395708622989330  0.3760343515976066  0.4393306890560700
  0.6637425577735275  0.3755730222464391  0.0481307524878445
  0.1695842004586724  0.2485805244362632  0.2787743795795931
  0.8313851018495237  0.2424847163805708  0.2193385784830179
  0.0001833596831499  0.3756755198179457  0.3718756029821909
  0.9972842283394197  0.3754794101686216  0.1270648165412790
  0.8392909458876497  0.2474825812627241  0.4484475272354996
  0.1612078801516237  0.2477476370081352  0.0507908411040475
  0.6733232431354242  0.1238188714031631  0.7828719134854539
  0.3282108833106844  0.1256017835361109  0.7187600179982556
  0.6602889799910336  0.3760104888469851  0.5615030326904799
  0.6739485924965236  0.6254869342246444  0.7835793147344119
  0.1641609536318370  0.7517168937869469  0.0525295626748532
  0.8379095696966826  0.7508020900720495  0.4470088351881273
  0.9973375150701539  0.8760089932415545  0.1275501448469791
  0.0035269554355080  0.8758718351628018  0.3720711632840802
  0.8275136732933206  0.7518485013681695  0.2190833935908879
  0.1727937353777505  0.7518415960165272  0.2806129880666749
  0.6636437345907391  0.8756936215668586  0.0539631231615095
  0.3377758231070265  0.8754528681835146  0.4474609693931535
  0.4967391314585509  0.7505978484986406  0.1273427816052558
  0.5043843719164860  0.7456273041911029  0.3730511497811668
  0.3288592497233888  0.8754285090409464  0.2198957599704900
  0.6716930059546053  0.8753070635927522  0.2810733708704097
  0.1629367697088956  0.7510558781019462  0.5531607510402110
  0.8363800807827054  0.7513682496255922  0.9471533458148924
  0.9970645671857906  0.8758232627834405  0.6284850554905738
  0.0028982836369466  0.8759424891571009  0.8719902844214920
  0.8274893441889782  0.7513660673848684  0.7191667029780792
  0.1730223597405728  0.7507417962338394  0.7808275555531906
  0.6615803869034007  0.8754039824301664  0.5526173293155157
  0.3362791546626708  0.8757214853001800  0.9463023479924013
  0.4954258933928944  0.7458436523468257  0.6274385733924142
  0.5034595807902704  0.7498129171176258  0.8730021762771836
  0.3284657146113316  0.8752717534418966  0.7189889675276271
  0.6712135852062691  0.8754269226915569  0.7802310625490745
 
  0.00000000E+00  0.00000000E+00  0.00000000E+00
  0.00000000E+00  0.00000000E+00  0.00000000E+00
  0.00000000E+00  0.00000000E+00  0.00000000E+00
  0.00000000E+00  0.00000000E+00  0.00000000E+00
  0.00000000E+00  0.00000000E+00  0.00000000E+00
  0.00000000E+00  0.00000000E+00  0.00000000E+00
  0.00000000E+00  0.00000000E+00  0.00000000E+00
  0.00000000E+00  0.00000000E+00  0.00000000E+00
  0.00000000E+00  0.00000000E+00  0.00000000E+00
  0.00000000E+00  0.00000000E+00  0.00000000E+00
  0.00000000E+00  0.00000000E+00  0.00000000E+00
  0.00000000E+00  0.00000000E+00  0.00000000E+00
  0.00000000E+00  0.00000000E+00  0.00000000E+00
  0.00000000E+00  0.00000000E+00  0.00000000E+00
  0.00000000E+00  0.00000000E+00  0.00000000E+00
  0.00000000E+00  0.00000000E+00  0.00000000E+00
  0.00000000E+00  0.00000000E+00  0.00000000E+00
  0.00000000E+00  0.00000000E+00  0.00000000E+00
  0.00000000E+00  0.00000000E+00  0.00000000E+00
  0.00000000E+00  0.00000000E+00  0.00000000E+00
  0.00000000E+00  0.00000000E+00  0.00000000E+00
  0.00000000E+00  0.00000000E+00  0.00000000E+00
  0.00000000E+00  0.00000000E+00  0.00000000E+00
  0.00000000E+00  0.00000000E+00  0.00000000E+00
  0.00000000E+00  0.00000000E+00  0.00000000E+00
  0.00000000E+00  0.00000000E+00  0.00000000E+00
  0.00000000E+00  0.00000000E+00  0.00000000E+00
  0.00000000E+00  0.00000000E+00  0.00000000E+00
  0.00000000E+00  0.00000000E+00  0.00000000E+00
  0.00000000E+00  0.00000000E+00  0.00000000E+00
  0.00000000E+00  0.00000000E+00  0.00000000E+00
  0.00000000E+00  0.00000000E+00  0.00000000E+00
  0.00000000E+00  0.00000000E+00  0.00000000E+00
  0.00000000E+00  0.00000000E+00  0.00000000E+00
  0.00000000E+00  0.00000000E+00  0.00000000E+00
  0.00000000E+00  0.00000000E+00  0.00000000E+00
  0.00000000E+00  0.00000000E+00  0.00000000E+00
  0.00000000E+00  0.00000000E+00  0.00000000E+00
  0.00000000E+00  0.00000000E+00  0.00000000E+00
  0.00000000E+00  0.00000000E+00  0.00000000E+00
  0.00000000E+00  0.00000000E+00  0.00000000E+00
  0.00000000E+00  0.00000000E+00  0.00000000E+00
  0.00000000E+00  0.00000000E+00  0.00000000E+00
  0.00000000E+00  0.00000000E+00  0.00000000E+00
  0.00000000E+00  0.00000000E+00  0.00000000E+00
  0.00000000E+00  0.00000000E+00  0.00000000E+00
  0.00000000E+00  0.00000000E+00  0.00000000E+00
  0.00000000E+00  0.00000000E+00  0.00000000E+00
  0.00000000E+00  0.00000000E+00  0.00000000E+00
  0.00000000E+00  0.00000000E+00  0.00000000E+00
  0.00000000E+00  0.00000000E+00  0.00000000E+00
  0.00000000E+00  0.00000000E+00  0.00000000E+00
  0.00000000E+00  0.00000000E+00  0.00000000E+00
  0.00000000E+00  0.00000000E+00  0.00000000E+00
  0.00000000E+00  0.00000000E+00  0.00000000E+00
  0.00000000E+00  0.00000000E+00  0.00000000E+00
  0.00000000E+00  0.00000000E+00  0.00000000E+00
  0.00000000E+00  0.00000000E+00  0.00000000E+00
  0.00000000E+00  0.00000000E+00  0.00000000E+00
  0.00000000E+00  0.00000000E+00  0.00000000E+00
  0.00000000E+00  0.00000000E+00  0.00000000E+00
  0.00000000E+00  0.00000000E+00  0.00000000E+00
  0.00000000E+00  0.00000000E+00  0.00000000E+00
  0.00000000E+00  0.00000000E+00  0.00000000E+00
  0.00000000E+00  0.00000000E+00  0.00000000E+00
  0.00000000E+00  0.00000000E+00  0.00000000E+00
  0.00000000E+00  0.00000000E+00  0.00000000E+00
  0.00000000E+00  0.00000000E+00  0.00000000E+00
  0.00000000E+00  0.00000000E+00  0.00000000E+00
  0.00000000E+00  0.00000000E+00  0.00000000E+00
  0.00000000E+00  0.00000000E+00  0.00000000E+00
  0.00000000E+00  0.00000000E+00  0.00000000E+00
  0.00000000E+00  0.00000000E+00  0.00000000E+00
  0.00000000E+00  0.00000000E+00  0.00000000E+00
  0.00000000E+00  0.00000000E+00  0.00000000E+00
  0.00000000E+00  0.00000000E+00  0.00000000E+00
  0.00000000E+00  0.00000000E+00  0.00000000E+00
  0.00000000E+00  0.00000000E+00  0.00000000E+00
  0.00000000E+00  0.00000000E+00  0.00000000E+00
  0.00000000E+00  0.00000000E+00  0.00000000E+00
  0.00000000E+00  0.00000000E+00  0.00000000E+00
  0.00000000E+00  0.00000000E+00  0.00000000E+00
  0.00000000E+00  0.00000000E+00  0.00000000E+00
  0.00000000E+00  0.00000000E+00  0.00000000E+00
  0.00000000E+00  0.00000000E+00  0.00000000E+00
  0.00000000E+00  0.00000000E+00  0.00000000E+00
  0.00000000E+00  0.00000000E+00  0.00000000E+00
  0.00000000E+00  0.00000000E+00  0.00000000E+00
  0.00000000E+00  0.00000000E+00  0.00000000E+00
  0.00000000E+00  0.00000000E+00  0.00000000E+00
  0.00000000E+00  0.00000000E+00  0.00000000E+00
  0.00000000E+00  0.00000000E+00  0.00000000E+00
  0.00000000E+00  0.00000000E+00  0.00000000E+00
  0.00000000E+00  0.00000000E+00  0.00000000E+00
  0.00000000E+00  0.00000000E+00  0.00000000E+00
  0.00000000E+00  0.00000000E+00  0.00000000E+00
  0.00000000E+00  0.00000000E+00  0.00000000E+00
  0.00000000E+00  0.00000000E+00  0.00000000E+00
  0.00000000E+00  0.00000000E+00  0.00000000E+00
  0.00000000E+00  0.00000000E+00  0.00000000E+00
  0.00000000E+00  0.00000000E+00  0.00000000E+00
  0.00000000E+00  0.00000000E+00  0.00000000E+00
  0.00000000E+00  0.00000000E+00  0.00000000E+00
  0.00000000E+00  0.00000000E+00  0.00000000E+00
  0.00000000E+00  0.00000000E+00  0.00000000E+00
  0.00000000E+00  0.00000000E+00  0.00000000E+00
  0.00000000E+00  0.00000000E+00  0.00000000E+00
  0.00000000E+00  0.00000000E+00  0.00000000E+00
  0.00000000E+00  0.00000000E+00  0.00000000E+00
  0.00000000E+00  0.00000000E+00  0.00000000E+00
  0.00000000E+00  0.00000000E+00  0.00000000E+00
  0.00000000E+00  0.00000000E+00  0.00000000E+00
  0.00000000E+00  0.00000000E+00  0.00000000E+00
  0.00000000E+00  0.00000000E+00  0.00000000E+00
  0.00000000E+00  0.00000000E+00  0.00000000E+00
  0.00000000E+00  0.00000000E+00  0.00000000E+00
  0.00000000E+00  0.00000000E+00  0.00000000E+00
  0.00000000E+00  0.00000000E+00  0.00000000E+00
  0.00000000E+00  0.00000000E+00  0.00000000E+00
  0.00000000E+00  0.00000000E+00  0.00000000E+00
  0.00000000E+00  0.00000000E+00  0.00000000E+00
  0.00000000E+00  0.00000000E+00  0.00000000E+00
  0.00000000E+00  0.00000000E+00  0.00000000E+00
  0.00000000E+00  0.00000000E+00  0.00000000E+00
  0.00000000E+00  0.00000000E+00  0.00000000E+00
  0.00000000E+00  0.00000000E+00  0.00000000E+00
  0.00000000E+00  0.00000000E+00  0.00000000E+00
  0.00000000E+00  0.00000000E+00  0.00000000E+00
  0.00000000E+00  0.00000000E+00  0.00000000E+00
  0.00000000E+00  0.00000000E+00  0.00000000E+00
  0.00000000E+00  0.00000000E+00  0.00000000E+00
  0.00000000E+00  0.00000000E+00  0.00000000E+00
  0.00000000E+00  0.00000000E+00  0.00000000E+00
  0.00000000E+00  0.00000000E+00  0.00000000E+00
  0.00000000E+00  0.00000000E+00  0.00000000E+00
  0.00000000E+00  0.00000000E+00  0.00000000E+00
  0.00000000E+00  0.00000000E+00  0.00000000E+00
  0.00000000E+00  0.00000000E+00  0.00000000E+00
  0.00000000E+00  0.00000000E+00  0.00000000E+00
  0.00000000E+00  0.00000000E+00  0.00000000E+00
  0.00000000E+00  0.00000000E+00  0.00000000E+00
  0.00000000E+00  0.00000000E+00  0.00000000E+00
  0.00000000E+00  0.00000000E+00  0.00000000E+00
  0.00000000E+00  0.00000000E+00  0.00000000E+00
  0.00000000E+00  0.00000000E+00  0.00000000E+00
  0.00000000E+00  0.00000000E+00  0.00000000E+00
  0.00000000E+00  0.00000000E+00  0.00000000E+00
  0.00000000E+00  0.00000000E+00  0.00000000E+00
  0.00000000E+00  0.00000000E+00  0.00000000E+00
  0.00000000E+00  0.00000000E+00  0.00000000E+00
  0.00000000E+00  0.00000000E+00  0.00000000E+00
  0.00000000E+00  0.00000000E+00  0.00000000E+00
  0.00000000E+00  0.00000000E+00  0.00000000E+00
  0.00000000E+00  0.00000000E+00  0.00000000E+00
  0.00000000E+00  0.00000000E+00  0.00000000E+00
  0.00000000E+00  0.00000000E+00  0.00000000E+00
  0.00000000E+00  0.00000000E+00  0.00000000E+00
  0.00000000E+00  0.00000000E+00  0.00000000E+00
  0.00000000E+00  0.00000000E+00  0.00000000E+00
