Ga  O                                   
   1.00000000000000     
    11.8609006217508721    0.0000000000000000   -2.9126240731473736
     0.0000000000000000   12.1318613217336004    0.0000000000000000
     0.0000000000000000    0.0000000000000000   11.5777857733786895
   Ga   O 
    63    96
Direct
  0.4993177660138458  0.3756677323036489  0.2485106966647851
  0.0904279941514322  0.0002451123451008  0.3965125009544638
  0.4100349762814852  0.6248089900275754  0.6048610587231016
  0.5886919829730678  0.6247394717183100  0.8966837281410742
  0.1601386938694722  0.6240216336253682  0.6561266022630488
  0.8417366246037764  0.6249225461723418  0.8450095737140553
  0.9117087003321334  0.5001507579493170  0.6035854560103338
  0.0919771671143794  0.4991306085673605  0.8956070461200795
  0.8404588456342925  0.3750426358083875  0.8452480396441561
  0.9128390006694492  0.2497538415518699  0.6034083809424590
  0.0904889987742429  0.2503218092790088  0.8955728673575504
  0.8397046374595296  0.6251419595878748  0.3438989621506925
  0.6588708585902711  0.0000552589318436  0.6534065231373343
  0.1602384745722233  0.6249634075328273  0.1564159261566592
  0.0857766227549323  0.2506576546600025  0.3940815991391219
  0.9146273897766313  0.2507384268816567  0.1049537270616271
  0.8314388480944170  0.3752308633939326  0.3448025557814812
  0.1702408153322546  0.3749535214287668  0.1529501536285023
  0.3384257944206029  0.2518747229576985  0.3485742810400475
  0.6622405551518481  0.2519020687876962  0.1516471046938779
  0.4121825769252856  0.6139864214542922  0.1059731869161154
  0.3382785933944829  0.4988261504578982  0.3478761683346424
  0.5876421778004067  0.6138931194382060  0.3939889258128701
  0.3412583847596971  0.0015913572251192  0.8453418895789189
  0.4101361911818303  0.1247353471928371  0.6050254159626148
  0.5887428187118182  0.1246804981467643  0.8965199745465663
  0.9095207272146407  0.0000930345885780  0.1040983041538100
  0.8391459859478110  0.1247080029547439  0.3433796781396336
  0.1608041866645373  0.1244948434302664  0.1570075565989863
  0.5864306107687911  0.1359875355665732  0.3937240492266577
  0.4134959489436958  0.1356860496096091  0.1064540011497072
  0.3433902742610663  0.0011988976372325  0.3426824901585935
  0.6566734356172489  0.0009938549348996  0.1576022027422333
  0.0869246601627883  0.4990986922320666  0.3941509336281585
  0.6623220876782658  0.4986750044879945  0.1522466127973403
  0.6583269407694040  0.2466291368759196  0.6590515072786907
  0.9134300394015790  0.4989738208145426  0.1048490332969223
  0.4106102910265530  0.3750799116891670  0.6025866734542327
  0.5860039049925803  0.3748560600433360  0.8971178381434763
  0.1615909257587049  0.3749191647411741  0.6541581636613438
  0.6582671433021893  0.5032806256248903  0.6601933248109142
  0.3394071201497688  0.4954911736675861  0.8502840998256981
  0.0899464100618569  0.9999089449388152  0.8967071476522931
  0.9101777156563948  0.9996804958729321  0.6029556371299384
  0.8414968101332797  0.1245085311751197  0.8447945230087115
  0.1604504171668061  0.1252594082713101  0.6565876899384040
  0.3392199591332186  0.2548634409718129  0.8526478833949257
  0.0890112071997021  0.7501706349223547  0.3962142227936845
  0.9109674737456782  0.7503532388270155  0.1042874554183685
  0.8399494138344614  0.8754959759751798  0.3428041131655392
  0.1602392144019449  0.8753633527265616  0.1570695414294668
  0.5873360590867609  0.8746010029308386  0.3950698835992696
  0.4122966760005972  0.8745768952175675  0.1037179419078901
  0.3427945622007436  0.7488257876045443  0.3432605846408685
  0.6571999432779283  0.7489767976532545  0.1570052641747076
  0.0884806263272142  0.7500852733734694  0.8962877200266495
  0.9115117698740193  0.7505351946507992  0.6033244121293991
  0.8399082505367415  0.8752620108635553  0.8434264716044441
  0.1605441068459848  0.8752054386118037  0.6570942866851964
  0.5897223839868377  0.8749472297051925  0.8963769436459647
  0.4106401008317040  0.8749731645620223  0.6037743446076882
  0.3407776550773378  0.7484879024494064  0.8460033530522932
  0.6592793737954225  0.7498081345272560  0.6528705278530236
  0.6722034717336166  0.3754131444295711  0.7823959172829872
  0.3253672841719948  0.3753302764136357  0.7129290434682498
  0.5023830209510790  0.2486973244007954  0.8708463796402801
  0.1631004034266572  0.5014367232625282  0.0525750518223270
  0.5044597295069622  0.4960167394093136  0.1371756016358705
  0.9973372627925671  0.6254600533269914  0.1275673337414101
  0.5024635494871943  0.5007201984950816  0.8704812506903532
  0.4976885149812038  0.4999992777943714  0.6266421324956801
  0.3372076559424784  0.6237819617095995  0.9485452160161035
  0.6625902295743928  0.6231293385848538  0.5523225746022203
  0.1693295532665302  0.5025475622448048  0.7767132150884634
  0.8270091560869414  0.4988927754440946  0.7180746156203290
  0.0032532124312208  0.6240253814318547  0.8717497883390183
  0.9967687840064796  0.6252924928986378  0.6275671153502212
  0.8384179262626209  0.5004307346590393  0.9473022194573881
  0.1612518932768888  0.5007722959272843  0.5509003503936181
  0.6750349658480006  0.6266836951858771  0.2824937223923047
  0.3258371147497095  0.6261531661509201  0.2186172894782211
  0.4975060362892125  0.4939976209394722  0.3661510781656924
  0.4976314457825342  0.2499469309733168  0.6264448948813913
  0.3348751740527228  0.6254167290958569  0.4484625900846733
  0.6659112906307457  0.6254857847248141  0.0520065446867865
  0.1707388349940103  0.5016507176701374  0.2802039687697884
  0.8295319195173979  0.5015714988246622  0.2190798533107703
  0.0020736879672893  0.6253818355522009  0.3718669712002023
  0.8359333295542098  0.5006054952393046  0.4476827568503254
  0.3238562702410655  0.3761049724926757  0.9385188215776261
  0.6696950807410118  0.3757580321599280  0.2694474271539955
  0.1696623320453040  0.2458693164918183  0.7777066498682120
  0.1727582067193209  0.9993089425186588  0.7815986317180974
  0.8269540765644687  0.0002418009893552  0.7184824219475521
  0.0029355563590756  0.1242844603083173  0.8716070596488004
  0.9968095869578002  0.1234241293404886  0.6276946911470985
  0.8357465245592367  0.9996864462462119  0.9468158448344304
  0.1640282315151405  0.9996833600591883  0.5533803267287011
  0.6737886608952411  0.1231408981641635  0.2821976806139769
  0.3270016968879040  0.1233971804181209  0.2188970170166692
  0.6618578578666341  0.1255710968827813  0.5519635363998516
  0.5050595546907265  0.0027765167297274  0.3731942756903807
  0.3358113814220738  0.1236086134221970  0.4483489532297800
  0.6651058792434545  0.1234011179833623  0.0521003818099112
  0.1730862515117879  0.9992260054285669  0.2811413591162298
  0.8268654114330106  0.9990605298590703  0.2190549370988631
  0.0019404541721323  0.1233624076037774  0.3718729849798045
  0.9975145767521817  0.1232552193982626  0.1275313431582960
  0.8359439105037851  0.9993115037957222  0.4469541005672726
  0.1636131162400508  0.9992876046056060  0.0530426918777867
  0.4952859753289525  0.0025015078182191  0.1269993981704438
  0.3380315916847299  0.1249884416854973  0.9490836132450531
  0.4974853636700383 -0.0001005963554014  0.6284562798644689
  0.5033586151763474  0.9996273560290662  0.8713694787868269
  0.8267865258309823  0.2515408920101062  0.7172133389372126
  0.0032977747370736  0.3754458603286224  0.8715481805290883
  0.9977378271877109  0.3755453526109367  0.6278886053207160
  0.8390904508339585  0.2490933940411125  0.9471928046169945
  0.1605095457765867  0.2485303713276959  0.5510356296426014
  0.3273119990357601  0.6255564108811239  0.7195994164415519
  0.3312255150029447  0.3756753943449272  0.2305099533734646
  0.4979126265325302  0.2579284408929415  0.3668516528477560
  0.5040954500967514  0.2558890622840270  0.1361832995554588
  0.3280017585797665  0.3759300397775169  0.4512970147559834
  0.6716626045967329  0.3758451425305804  0.0474653307803184
  0.1710927751591617  0.2475613545432542  0.2809621646154713
  0.8292307276160720  0.2475887383762819  0.2183087647056294
  0.9990979806274926  0.3755105265917199  0.3714393974075728
  0.0008503670215046  0.3754837979460598  0.1274420823758374
  0.8366030064186746  0.2492973861763800  0.4474209091823841
  0.1624235239046395  0.2476468322808063  0.0526528787115000
  0.6730761509082205  0.1243642247993887  0.7813661949538694
  0.3276281941656403  0.1230432789747327  0.7196482397185401
  0.6692766372526668  0.3758291335538089  0.5578954748144312
  0.6732471969566289  0.6248675028815474  0.7817421600799614
  0.1622780157629736  0.7511258870251041  0.0528863770207925
  0.8372179327992189  0.7515111064077843  0.4470802775496215
  0.9968428902661621  0.8759415591930934  0.1275645492768388
  0.0031320441423320  0.8759328759845262  0.3723712784235089
  0.8273723757262720  0.7518668216573159  0.2187511844036388
  0.1726013115547357  0.7516415383192229  0.2814192253294693
  0.6621972726093728  0.8755656960960122  0.0535314601106346
  0.3386388664111453  0.8756187268679954  0.4464049227141275
  0.4953106047329908  0.7460521896233310  0.1266687393424072
  0.5049716384138806  0.7458488431705811  0.3734699084443970
  0.3290577940621393  0.8752421949299277  0.2194024340695606
  0.6709505642160232  0.8753181608451048  0.2802406765005832
  0.1628695225126344  0.7503542763401091  0.5533235405425002
  0.8370366854445962  0.7504908048123015  0.9468133798355670
  0.9975219862377204  0.8757988187491584  0.6287024569748688
  0.0021727021437491  0.8757507804916421  0.8714348809991587
  0.8272518325163976  0.7496929489929954  0.7182371886167787
  0.1724576031995220  0.7508087371413997  0.7818211988323254
  0.6637162576467862  0.8754772738907945  0.5520632162428499
  0.3370483210155322  0.8756017686562760  0.9468244519340206
  0.4974906872051089  0.7497926979864658  0.6283001985034344
  0.5032581334773473  0.7500959692399174  0.8716287920435475
  0.3278502448513467  0.8751530167938752  0.7190064111539498
  0.6726233243853853  0.8752950201435761  0.7803995487549026
 
  0.00000000E+00  0.00000000E+00  0.00000000E+00
  0.00000000E+00  0.00000000E+00  0.00000000E+00
  0.00000000E+00  0.00000000E+00  0.00000000E+00
  0.00000000E+00  0.00000000E+00  0.00000000E+00
  0.00000000E+00  0.00000000E+00  0.00000000E+00
  0.00000000E+00  0.00000000E+00  0.00000000E+00
  0.00000000E+00  0.00000000E+00  0.00000000E+00
  0.00000000E+00  0.00000000E+00  0.00000000E+00
  0.00000000E+00  0.00000000E+00  0.00000000E+00
  0.00000000E+00  0.00000000E+00  0.00000000E+00
  0.00000000E+00  0.00000000E+00  0.00000000E+00
  0.00000000E+00  0.00000000E+00  0.00000000E+00
  0.00000000E+00  0.00000000E+00  0.00000000E+00
  0.00000000E+00  0.00000000E+00  0.00000000E+00
  0.00000000E+00  0.00000000E+00  0.00000000E+00
  0.00000000E+00  0.00000000E+00  0.00000000E+00
  0.00000000E+00  0.00000000E+00  0.00000000E+00
  0.00000000E+00  0.00000000E+00  0.00000000E+00
  0.00000000E+00  0.00000000E+00  0.00000000E+00
  0.00000000E+00  0.00000000E+00  0.00000000E+00
  0.00000000E+00  0.00000000E+00  0.00000000E+00
  0.00000000E+00  0.00000000E+00  0.00000000E+00
  0.00000000E+00  0.00000000E+00  0.00000000E+00
  0.00000000E+00  0.00000000E+00  0.00000000E+00
  0.00000000E+00  0.00000000E+00  0.00000000E+00
  0.00000000E+00  0.00000000E+00  0.00000000E+00
  0.00000000E+00  0.00000000E+00  0.00000000E+00
  0.00000000E+00  0.00000000E+00  0.00000000E+00
  0.00000000E+00  0.00000000E+00  0.00000000E+00
  0.00000000E+00  0.00000000E+00  0.00000000E+00
  0.00000000E+00  0.00000000E+00  0.00000000E+00
  0.00000000E+00  0.00000000E+00  0.00000000E+00
  0.00000000E+00  0.00000000E+00  0.00000000E+00
  0.00000000E+00  0.00000000E+00  0.00000000E+00
  0.00000000E+00  0.00000000E+00  0.00000000E+00
  0.00000000E+00  0.00000000E+00  0.00000000E+00
  0.00000000E+00  0.00000000E+00  0.00000000E+00
  0.00000000E+00  0.00000000E+00  0.00000000E+00
  0.00000000E+00  0.00000000E+00  0.00000000E+00
  0.00000000E+00  0.00000000E+00  0.00000000E+00
  0.00000000E+00  0.00000000E+00  0.00000000E+00
  0.00000000E+00  0.00000000E+00  0.00000000E+00
  0.00000000E+00  0.00000000E+00  0.00000000E+00
  0.00000000E+00  0.00000000E+00  0.00000000E+00
  0.00000000E+00  0.00000000E+00  0.00000000E+00
  0.00000000E+00  0.00000000E+00  0.00000000E+00
  0.00000000E+00  0.00000000E+00  0.00000000E+00
  0.00000000E+00  0.00000000E+00  0.00000000E+00
  0.00000000E+00  0.00000000E+00  0.00000000E+00
  0.00000000E+00  0.00000000E+00  0.00000000E+00
  0.00000000E+00  0.00000000E+00  0.00000000E+00
  0.00000000E+00  0.00000000E+00  0.00000000E+00
  0.00000000E+00  0.00000000E+00  0.00000000E+00
  0.00000000E+00  0.00000000E+00  0.00000000E+00
  0.00000000E+00  0.00000000E+00  0.00000000E+00
  0.00000000E+00  0.00000000E+00  0.00000000E+00
  0.00000000E+00  0.00000000E+00  0.00000000E+00
  0.00000000E+00  0.00000000E+00  0.00000000E+00
  0.00000000E+00  0.00000000E+00  0.00000000E+00
  0.00000000E+00  0.00000000E+00  0.00000000E+00
  0.00000000E+00  0.00000000E+00  0.00000000E+00
  0.00000000E+00  0.00000000E+00  0.00000000E+00
  0.00000000E+00  0.00000000E+00  0.00000000E+00
  0.00000000E+00  0.00000000E+00  0.00000000E+00
  0.00000000E+00  0.00000000E+00  0.00000000E+00
  0.00000000E+00  0.00000000E+00  0.00000000E+00
  0.00000000E+00  0.00000000E+00  0.00000000E+00
  0.00000000E+00  0.00000000E+00  0.00000000E+00
  0.00000000E+00  0.00000000E+00  0.00000000E+00
  0.00000000E+00  0.00000000E+00  0.00000000E+00
  0.00000000E+00  0.00000000E+00  0.00000000E+00
  0.00000000E+00  0.00000000E+00  0.00000000E+00
  0.00000000E+00  0.00000000E+00  0.00000000E+00
  0.00000000E+00  0.00000000E+00  0.00000000E+00
  0.00000000E+00  0.00000000E+00  0.00000000E+00
  0.00000000E+00  0.00000000E+00  0.00000000E+00
  0.00000000E+00  0.00000000E+00  0.00000000E+00
  0.00000000E+00  0.00000000E+00  0.00000000E+00
  0.00000000E+00  0.00000000E+00  0.00000000E+00
  0.00000000E+00  0.00000000E+00  0.00000000E+00
  0.00000000E+00  0.00000000E+00  0.00000000E+00
  0.00000000E+00  0.00000000E+00  0.00000000E+00
  0.00000000E+00  0.00000000E+00  0.00000000E+00
  0.00000000E+00  0.00000000E+00  0.00000000E+00
  0.00000000E+00  0.00000000E+00  0.00000000E+00
  0.00000000E+00  0.00000000E+00  0.00000000E+00
  0.00000000E+00  0.00000000E+00  0.00000000E+00
  0.00000000E+00  0.00000000E+00  0.00000000E+00
  0.00000000E+00  0.00000000E+00  0.00000000E+00
  0.00000000E+00  0.00000000E+00  0.00000000E+00
  0.00000000E+00  0.00000000E+00  0.00000000E+00
  0.00000000E+00  0.00000000E+00  0.00000000E+00
  0.00000000E+00  0.00000000E+00  0.00000000E+00
  0.00000000E+00  0.00000000E+00  0.00000000E+00
  0.00000000E+00  0.00000000E+00  0.00000000E+00
  0.00000000E+00  0.00000000E+00  0.00000000E+00
  0.00000000E+00  0.00000000E+00  0.00000000E+00
  0.00000000E+00  0.00000000E+00  0.00000000E+00
  0.00000000E+00  0.00000000E+00  0.00000000E+00
  0.00000000E+00  0.00000000E+00  0.00000000E+00
  0.00000000E+00  0.00000000E+00  0.00000000E+00
  0.00000000E+00  0.00000000E+00  0.00000000E+00
  0.00000000E+00  0.00000000E+00  0.00000000E+00
  0.00000000E+00  0.00000000E+00  0.00000000E+00
  0.00000000E+00  0.00000000E+00  0.00000000E+00
  0.00000000E+00  0.00000000E+00  0.00000000E+00
  0.00000000E+00  0.00000000E+00  0.00000000E+00
  0.00000000E+00  0.00000000E+00  0.00000000E+00
  0.00000000E+00  0.00000000E+00  0.00000000E+00
  0.00000000E+00  0.00000000E+00  0.00000000E+00
  0.00000000E+00  0.00000000E+00  0.00000000E+00
  0.00000000E+00  0.00000000E+00  0.00000000E+00
  0.00000000E+00  0.00000000E+00  0.00000000E+00
  0.00000000E+00  0.00000000E+00  0.00000000E+00
  0.00000000E+00  0.00000000E+00  0.00000000E+00
  0.00000000E+00  0.00000000E+00  0.00000000E+00
  0.00000000E+00  0.00000000E+00  0.00000000E+00
  0.00000000E+00  0.00000000E+00  0.00000000E+00
  0.00000000E+00  0.00000000E+00  0.00000000E+00
  0.00000000E+00  0.00000000E+00  0.00000000E+00
  0.00000000E+00  0.00000000E+00  0.00000000E+00
  0.00000000E+00  0.00000000E+00  0.00000000E+00
  0.00000000E+00  0.00000000E+00  0.00000000E+00
  0.00000000E+00  0.00000000E+00  0.00000000E+00
  0.00000000E+00  0.00000000E+00  0.00000000E+00
  0.00000000E+00  0.00000000E+00  0.00000000E+00
  0.00000000E+00  0.00000000E+00  0.00000000E+00
  0.00000000E+00  0.00000000E+00  0.00000000E+00
  0.00000000E+00  0.00000000E+00  0.00000000E+00
  0.00000000E+00  0.00000000E+00  0.00000000E+00
  0.00000000E+00  0.00000000E+00  0.00000000E+00
  0.00000000E+00  0.00000000E+00  0.00000000E+00
  0.00000000E+00  0.00000000E+00  0.00000000E+00
  0.00000000E+00  0.00000000E+00  0.00000000E+00
  0.00000000E+00  0.00000000E+00  0.00000000E+00
  0.00000000E+00  0.00000000E+00  0.00000000E+00
  0.00000000E+00  0.00000000E+00  0.00000000E+00
  0.00000000E+00  0.00000000E+00  0.00000000E+00
  0.00000000E+00  0.00000000E+00  0.00000000E+00
  0.00000000E+00  0.00000000E+00  0.00000000E+00
  0.00000000E+00  0.00000000E+00  0.00000000E+00
  0.00000000E+00  0.00000000E+00  0.00000000E+00
  0.00000000E+00  0.00000000E+00  0.00000000E+00
  0.00000000E+00  0.00000000E+00  0.00000000E+00
  0.00000000E+00  0.00000000E+00  0.00000000E+00
  0.00000000E+00  0.00000000E+00  0.00000000E+00
  0.00000000E+00  0.00000000E+00  0.00000000E+00
  0.00000000E+00  0.00000000E+00  0.00000000E+00
  0.00000000E+00  0.00000000E+00  0.00000000E+00
  0.00000000E+00  0.00000000E+00  0.00000000E+00
  0.00000000E+00  0.00000000E+00  0.00000000E+00
  0.00000000E+00  0.00000000E+00  0.00000000E+00
  0.00000000E+00  0.00000000E+00  0.00000000E+00
  0.00000000E+00  0.00000000E+00  0.00000000E+00
  0.00000000E+00  0.00000000E+00  0.00000000E+00
  0.00000000E+00  0.00000000E+00  0.00000000E+00
  0.00000000E+00  0.00000000E+00  0.00000000E+00
  0.00000000E+00  0.00000000E+00  0.00000000E+00
  0.00000000E+00  0.00000000E+00  0.00000000E+00
