KPOINTS created by Atomic Simulation Environment
1 
Reciprocal
0.250000 0.250000 0.250000 1.0 
