Ga Fe  O                                
   1.00000000000000     
    11.8609006217508721    0.0000000000000000   -2.9126240731473736
     0.0000000000000000   12.1318613217336004    0.0000000000000000
     0.0000000000000000    0.0000000000000000   11.5777857733786895
   Ga   Fe   O 
    63     1    96
Selective dynamics
Direct
  0.0906267111891360  0.0000643425776299  0.3962704746747769   T   T   T
  0.4108154375054244  0.6247061272095981  0.6032787679492846   T   T   T
  0.5893744512321241  0.6249070242314091  0.8963600620756901   T   T   T
  0.1593589277119384  0.6248945436855765  0.6561819625753601   T   T   T
  0.8404826200834762  0.6248834205035235  0.8442763787309259   T   T   T
  0.9101187013177233  0.4999438476010405  0.6038597965784283   T   T   T
  0.0892966721130214  0.5000619858559199  0.8960897700118420   T   T   T
  0.8404779255015149  0.3749772920861595  0.8443933373346599   T   T   T
  0.9112124316257920  0.2500034161246288  0.6040039541863883   T   T   T
  0.0894081978124319  0.2500000000000000  0.8962991444574158   F   F   F
  0.8408769014599042  0.6248105095135487  0.3442142114637933   T   T   T
  0.6595194347674778  0.9998249726395785  0.6567098900128199   T   T   T
  0.1596222945981942  0.6245926078391857  0.1564140118349647   T   T   T
  0.0902416017486143  0.2500572376739665  0.3947262856697966   T   T   T
  0.9126400538719871  0.2500540268242934  0.1043411579354493   T   T   T
  0.8415119228075321  0.3751957556532924  0.3439491117140105   T   T   T
  0.1609273759506757  0.3749273983587444  0.1566481720576838   T   T   T
  0.5923371777424469  0.3758149527436687  0.3969710165939269   T   T   T
  0.4104280861385610  0.3759988468372272  0.1039227794499701   T   T   T
  0.6595232598515810  0.2500720265554384  0.1557645310308761   T   T   T
  0.4108761811011025  0.6247931484052200  0.1043816187105250   T   T   T
  0.3408522856853772  0.4992491725397921  0.3440094055750908   T   T   T
  0.5899206942218140  0.6249384699931612  0.3963482696486549   T   T   T
  0.3404987454480314  0.0003118988023209  0.8436996434564844   T   T   T
  0.4098115841484424  0.1242202424624433  0.6022233470211246   T   T   T
  0.5891812390493567  0.1249802567310913  0.8961769407303181   T   T   T
  0.9107095055959142  0.9998996981145684  0.1036507107444893   T   T   T
  0.8414874923180800  0.1248670222877957  0.3439371766582667   T   T   T
  0.1609319947769291  0.1252770687216516  0.1566477488314434   T   T   T
  0.5922863225792530  0.1242729836095498  0.3969697914204448   T   T   T
  0.4104522117910857  0.1241737557663143  0.1039357565604714   T   T   T
  0.3408233010232470  0.0009064730947499  0.3439997327764184   T   T   T
  0.6600662018730626  0.0001217906864749  0.1561641727820066   T   T   T
  0.0906686207239125  0.5000326006026538  0.3962794378842029   T   T   T
  0.6600969903761817  0.4999920378195116  0.1561532333385623   T   T   T
  0.6588988240297462  0.2500276383707859  0.6547872885105755   T   T   T
  0.9107146353799583  0.5002238076571075  0.1036412417668083   T   T   T
  0.4097787824607080  0.3759563930074054  0.6021879739388435   T   T   T
  0.5892431893444864  0.3751403031614385  0.8961717252679421   T   T   T
  0.1598185321929745  0.3751672571654271  0.6554010113166178   T   T   T
  0.6595568138283671  0.5002343729764290  0.6567003910891618   T   T   T
  0.3405230074713223  0.4997958996279006  0.8436936547620727   T   T   T
  0.0893359970107807  0.0000164692558276  0.8961179327595337   T   T   T
  0.9101136056934334  0.0000876596697065  0.6038797683915806   T   T   T
  0.8404514171276466  0.1250888564052062  0.8443853598544321   T   T   T
  0.1598313436513207  0.1249134593474417  0.6553804612729563   T   T   T
  0.3404073990584841  0.2500621669561165  0.8443032804074433   T   T   T
  0.0888431417345309  0.7500576024980002  0.3960637067647618   T   T   T
  0.9110086029418272  0.7500689875617109  0.1039173446039031   T   T   T
  0.8408436073446662  0.8752763092032345  0.3442149053839522   T   T   T
  0.1596221634353256  0.8755807107656944  0.1564417334418569   T   T   T
  0.5899144240189271  0.8751568404040375  0.3963634557327783   T   T   T
  0.4108124860483284  0.8753662381299570  0.1043573560906744   T   T   T
  0.3407234854921996  0.7500732606530601  0.3439059532529090   T   T   T
  0.6598576082614523  0.7500616587185523  0.1556987954345788   T   T   T
  0.0887210548887935  0.7500657370242562  0.8967022440596091   T   T   T
  0.9109732144782329  0.7500259948409268  0.6040604569179907   T   T   T
  0.8404592510390375  0.8752385641480471  0.8442854030227521   T   T   T
  0.1593657764035887  0.8751895587751811  0.6561823608808146   T   T   T
  0.5893858781861138  0.8752227971021531  0.8963797519421113   T   T   T
  0.4107361148660429  0.8754759015701883  0.6032131082802479   T   T   T
  0.3404471526728924  0.7500594134786543  0.8446810011349545   T   T   T
  0.6595325774583684  0.7500450808232680  0.6555125566556481   T   T   T
  0.3429741925841437  0.2500875948190925  0.3433114779825588   T   T   T
  0.6727213152653515  0.3753574763438317  0.7813311249093660   T   T   T
  0.3276591144905380  0.3755779020195040  0.7196032827217186   T   T   T
  0.5030076038699439  0.2500877102892354  0.8723745871757873   T   T   T
  0.1624023812177767  0.5009219708573442  0.0521858132685585   T   T   T
  0.4983795924137185  0.5005760890769784  0.1269101120415703   T   T   T
  0.9967465422400522  0.6249225498103959  0.1274446265051741   T   T   T
  0.5030369633343869  0.5001709799016560  0.8726019542636241   T   T   T
  0.4982793997091233  0.5005463933657637  0.6299501484174577   T   T   T
  0.3363283512686674  0.6244255532213079  0.9471799811650256   T   T   T
  0.6647014319627383  0.6246585490871164  0.5532928425369454   T   T   T
  0.1722325444331942  0.5003063158011358  0.7807421276193948   T   T   T
  0.8278615935188325  0.5003470856776429  0.7198762242659534   T   T   T
  0.0024642141714487  0.6247236192062400  0.8717340472496645   T   T   T
  0.9968169809805241  0.6245551216881650  0.6281382571248889   T   T   T
  0.8356095280570192  0.5001685940451635  0.9469914435429898   T   T   T
  0.1626538733143860  0.5006459060737724  0.5536120815417716   T   T   T
  0.6730626035209820  0.6249610944230698  0.2808019840740920   T   T   T
  0.3279033192195931  0.6263582145310845  0.2192961408025946   T   T   T
  0.5045771644308038  0.5001016560969369  0.3724778190695652   T   T   T
  0.4966236492548305  0.2500997739263975  0.6274147239652129   T   T   T
  0.3365178038706916  0.6258386783985841  0.4468144857857128   T   T   T
  0.6648365507207846  0.6246309948466654  0.0529027537084467   T   T   T
  0.1707860403194436  0.5020615411955016  0.2797053135071332   T   T   T
  0.8283109575519566  0.5005420648111771  0.2194298013218819   T   T   T
  0.0028086933165776  0.6244715754968789  0.3728487090368611   T   T   T
  0.8355957069265991  0.5000769708162626  0.4471531382558633   T   T   T
  0.3364280309668484  0.3757448552770917  0.9465968800143262   T   T   T
  0.6742780565955397  0.3765221715062251  0.2800584888896681   T   T   T
  0.1723144948860010  0.2500500653716618  0.7806322064727621   T   T   T
  0.1722398341816962  0.9997801714637712  0.7807504749326165   T   T   T
  0.8278371231936200  0.9997020858927587  0.7198779598552093   T   T   T
  0.0026321796650201  0.1246109349487190  0.8716818801556735   T   T   T
  0.9970360066854611  0.1243736402554102  0.6280821405469353   T   T   T
  0.8355755005115328  0.9999430683275223  0.9470091988231294   T   T   T
  0.1626489183425735  0.9994159895516836  0.5535991209215260   T   T   T
  0.6742419055605401  0.1235668882732410  0.2800668204544030   T   T   T
  0.3256583504989876  0.1149463906081933  0.2142690735824422   T   T   T
  0.6659309913846494  0.1234229714310681  0.5543672678674267   T   T   T
  0.5045482179362906 -0.0000299865388957  0.3724818832775144   T   T   T
  0.3320183634239631  0.1158460016055533  0.4502867643254682   T   T   T
  0.6643999255073955  0.1245904569130636  0.0527851831810006   T   T   T
  0.1707552881785973  0.9981141801667104  0.2797076720085739   T   T   T
  0.8283082791170638  0.9995278761290046  0.2194384987548202   T   T   T
  0.0031341234785796  0.1242778694503925  0.3730051493970627   T   T   T
  0.9970854306351020  0.1239204574079020  0.1265578202614427   T   T   T
  0.8355977861774362  0.0000034266537379  0.4471695533496204   T   T   T
  0.1624614558260540  0.9992068517405863  0.0522010489663551   T   T   T
  0.4983475871949278  0.9995524247390761  0.1269073112937701   T   T   T
  0.3364283486500909  0.1243896207095782  0.9466063170922934   T   T   T
  0.4982552350287604  0.9995789475691157  0.6299363437048089   T   T   T
  0.5030068223800043 -0.0000739091244155  0.8726188149251918   T   T   T
  0.8274793805460544  0.2499765541237389  0.7191558386520865   T   T   T
  0.0026352232744238  0.3754259416948295  0.8716536167494925   T   T   T
  0.9970134282863071  0.3756470872207607  0.6280916415291895   T   T   T
  0.8367163786857515  0.2500523403084251  0.9473768956335892   T   T   T
  0.1626138889340324  0.2500527065820977  0.5527992808898056   T   T   T
  0.3276320760814894  0.6247435356211695  0.7191542247069489   T   T   T
  0.3256773635941800  0.3851910490779777  0.2142741133154285   T   T   T
  0.5121763515837784  0.2500656395510313  0.3736513916728982   T   T   T
  0.4967578379340574  0.2500990297473584  0.1272309839864929   T   T   T
  0.3320084827732602  0.3842920909343583  0.4502596138542604   T   T   T
  0.6644656126981804  0.3755186662144887  0.0527746916133361   T   T   T
  0.1662063318965543  0.2501564044805366  0.2754523836303000   T   T   T
  0.8283067375172960  0.2500055487394034  0.2190391740267280   T   T   T
  0.0031415984371716  0.3758373682616575  0.3730296589931952   T   T   T
  0.9970517694359224  0.3761971686730193  0.1265508550575154   T   T   T
  0.8362397841259579  0.2500438064404248  0.4470526475817720   T   T   T
  0.1648131074756492  0.2501087352113216  0.0519479234054236   T   T   T
  0.6726717759435994  0.1247398431660878  0.7813404194733226   T   T   T
  0.3276565578269987  0.1244927852546102  0.7196094748109374   T   T   T
  0.6659936979079009  0.3766214999963403  0.5543605424064167   T   T   T
  0.6727026038051103  0.6249352210085994  0.7812410536332796   T   T   T
  0.1633157895597245  0.7501024543539100  0.0531406694261334   T   T   T
  0.8363076608566018  0.7500530216012308  0.4471762130990187   T   T   T
  0.9967374903551240  0.8752150594136286  0.1274334391855003   T   T   T
  0.0027816565574660  0.8756267780274488  0.3728733603881575   T   T   T
  0.8277801104766577  0.7500389993484899  0.2192754827066533   T   T   T
  0.1717300669021698  0.7501015384815314  0.2808193371697849   T   T   T
  0.6648654426252716  0.8754909507339046  0.0529154084382882   T   T   T
  0.3364621214198489  0.8743286629473198  0.4467700871688522   T   T   T
  0.4975853508761363  0.7501096633567270  0.1272212012185763   T   T   T
  0.5039522670999610  0.7500545326472493  0.3723686061175702   T   T   T
  0.3278933665943756  0.8737786475357825  0.2193059106978573   T   T   T
  0.6730525863281127  0.8751786697893001  0.2808082391627996   T   T   T
  0.1630075581957636  0.7500453613116496  0.5532898049213153   T   T   T
  0.8361851544679644  0.7500803683978340  0.9470200551688477   T   T   T
  0.9968223966160614  0.8754902768601754  0.6281820393221309   T   T   T
  0.0024423374734869  0.8753917780535745  0.8717555191232017   T   T   T
  0.8274473490875743  0.7500256975582633  0.7191680109967993   T   T   T
  0.1723866484767751  0.7500616540770885  0.7813694419797542   T   T   T
  0.6647261533837343  0.8754130661282461  0.5532940243946289   T   T   T
  0.3362854634808731  0.8756902663588568  0.9471632587651684   T   T   T
  0.4974284544215175  0.7501224847177914  0.6282730271358727   T   T   T
  0.5030023956411709  0.7500810241881311  0.8725705809451937   T   T   T
  0.3276150316364532  0.8753273087781621  0.7191371260934436   T   T   T
  0.6726990786377844  0.8751926394512922  0.7812481046762021   T   T   T
 
  0.00000000E+00  0.00000000E+00  0.00000000E+00
  0.00000000E+00  0.00000000E+00  0.00000000E+00
  0.00000000E+00  0.00000000E+00  0.00000000E+00
  0.00000000E+00  0.00000000E+00  0.00000000E+00
  0.00000000E+00  0.00000000E+00  0.00000000E+00
  0.00000000E+00  0.00000000E+00  0.00000000E+00
  0.00000000E+00  0.00000000E+00  0.00000000E+00
  0.00000000E+00  0.00000000E+00  0.00000000E+00
  0.00000000E+00  0.00000000E+00  0.00000000E+00
  0.00000000E+00  0.00000000E+00  0.00000000E+00
  0.00000000E+00  0.00000000E+00  0.00000000E+00
  0.00000000E+00  0.00000000E+00  0.00000000E+00
  0.00000000E+00  0.00000000E+00  0.00000000E+00
  0.00000000E+00  0.00000000E+00  0.00000000E+00
  0.00000000E+00  0.00000000E+00  0.00000000E+00
  0.00000000E+00  0.00000000E+00  0.00000000E+00
  0.00000000E+00  0.00000000E+00  0.00000000E+00
  0.00000000E+00  0.00000000E+00  0.00000000E+00
  0.00000000E+00  0.00000000E+00  0.00000000E+00
  0.00000000E+00  0.00000000E+00  0.00000000E+00
  0.00000000E+00  0.00000000E+00  0.00000000E+00
  0.00000000E+00  0.00000000E+00  0.00000000E+00
  0.00000000E+00  0.00000000E+00  0.00000000E+00
  0.00000000E+00  0.00000000E+00  0.00000000E+00
  0.00000000E+00  0.00000000E+00  0.00000000E+00
  0.00000000E+00  0.00000000E+00  0.00000000E+00
  0.00000000E+00  0.00000000E+00  0.00000000E+00
  0.00000000E+00  0.00000000E+00  0.00000000E+00
  0.00000000E+00  0.00000000E+00  0.00000000E+00
  0.00000000E+00  0.00000000E+00  0.00000000E+00
  0.00000000E+00  0.00000000E+00  0.00000000E+00
  0.00000000E+00  0.00000000E+00  0.00000000E+00
  0.00000000E+00  0.00000000E+00  0.00000000E+00
  0.00000000E+00  0.00000000E+00  0.00000000E+00
  0.00000000E+00  0.00000000E+00  0.00000000E+00
  0.00000000E+00  0.00000000E+00  0.00000000E+00
  0.00000000E+00  0.00000000E+00  0.00000000E+00
  0.00000000E+00  0.00000000E+00  0.00000000E+00
  0.00000000E+00  0.00000000E+00  0.00000000E+00
  0.00000000E+00  0.00000000E+00  0.00000000E+00
  0.00000000E+00  0.00000000E+00  0.00000000E+00
  0.00000000E+00  0.00000000E+00  0.00000000E+00
  0.00000000E+00  0.00000000E+00  0.00000000E+00
  0.00000000E+00  0.00000000E+00  0.00000000E+00
  0.00000000E+00  0.00000000E+00  0.00000000E+00
  0.00000000E+00  0.00000000E+00  0.00000000E+00
  0.00000000E+00  0.00000000E+00  0.00000000E+00
  0.00000000E+00  0.00000000E+00  0.00000000E+00
  0.00000000E+00  0.00000000E+00  0.00000000E+00
  0.00000000E+00  0.00000000E+00  0.00000000E+00
  0.00000000E+00  0.00000000E+00  0.00000000E+00
  0.00000000E+00  0.00000000E+00  0.00000000E+00
  0.00000000E+00  0.00000000E+00  0.00000000E+00
  0.00000000E+00  0.00000000E+00  0.00000000E+00
  0.00000000E+00  0.00000000E+00  0.00000000E+00
  0.00000000E+00  0.00000000E+00  0.00000000E+00
  0.00000000E+00  0.00000000E+00  0.00000000E+00
  0.00000000E+00  0.00000000E+00  0.00000000E+00
  0.00000000E+00  0.00000000E+00  0.00000000E+00
  0.00000000E+00  0.00000000E+00  0.00000000E+00
  0.00000000E+00  0.00000000E+00  0.00000000E+00
  0.00000000E+00  0.00000000E+00  0.00000000E+00
  0.00000000E+00  0.00000000E+00  0.00000000E+00
  0.00000000E+00  0.00000000E+00  0.00000000E+00
  0.00000000E+00  0.00000000E+00  0.00000000E+00
  0.00000000E+00  0.00000000E+00  0.00000000E+00
  0.00000000E+00  0.00000000E+00  0.00000000E+00
  0.00000000E+00  0.00000000E+00  0.00000000E+00
  0.00000000E+00  0.00000000E+00  0.00000000E+00
  0.00000000E+00  0.00000000E+00  0.00000000E+00
  0.00000000E+00  0.00000000E+00  0.00000000E+00
  0.00000000E+00  0.00000000E+00  0.00000000E+00
  0.00000000E+00  0.00000000E+00  0.00000000E+00
  0.00000000E+00  0.00000000E+00  0.00000000E+00
  0.00000000E+00  0.00000000E+00  0.00000000E+00
  0.00000000E+00  0.00000000E+00  0.00000000E+00
  0.00000000E+00  0.00000000E+00  0.00000000E+00
  0.00000000E+00  0.00000000E+00  0.00000000E+00
  0.00000000E+00  0.00000000E+00  0.00000000E+00
  0.00000000E+00  0.00000000E+00  0.00000000E+00
  0.00000000E+00  0.00000000E+00  0.00000000E+00
  0.00000000E+00  0.00000000E+00  0.00000000E+00
  0.00000000E+00  0.00000000E+00  0.00000000E+00
  0.00000000E+00  0.00000000E+00  0.00000000E+00
  0.00000000E+00  0.00000000E+00  0.00000000E+00
  0.00000000E+00  0.00000000E+00  0.00000000E+00
  0.00000000E+00  0.00000000E+00  0.00000000E+00
  0.00000000E+00  0.00000000E+00  0.00000000E+00
  0.00000000E+00  0.00000000E+00  0.00000000E+00
  0.00000000E+00  0.00000000E+00  0.00000000E+00
  0.00000000E+00  0.00000000E+00  0.00000000E+00
  0.00000000E+00  0.00000000E+00  0.00000000E+00
  0.00000000E+00  0.00000000E+00  0.00000000E+00
  0.00000000E+00  0.00000000E+00  0.00000000E+00
  0.00000000E+00  0.00000000E+00  0.00000000E+00
  0.00000000E+00  0.00000000E+00  0.00000000E+00
  0.00000000E+00  0.00000000E+00  0.00000000E+00
  0.00000000E+00  0.00000000E+00  0.00000000E+00
  0.00000000E+00  0.00000000E+00  0.00000000E+00
  0.00000000E+00  0.00000000E+00  0.00000000E+00
  0.00000000E+00  0.00000000E+00  0.00000000E+00
  0.00000000E+00  0.00000000E+00  0.00000000E+00
  0.00000000E+00  0.00000000E+00  0.00000000E+00
  0.00000000E+00  0.00000000E+00  0.00000000E+00
  0.00000000E+00  0.00000000E+00  0.00000000E+00
  0.00000000E+00  0.00000000E+00  0.00000000E+00
  0.00000000E+00  0.00000000E+00  0.00000000E+00
  0.00000000E+00  0.00000000E+00  0.00000000E+00
  0.00000000E+00  0.00000000E+00  0.00000000E+00
  0.00000000E+00  0.00000000E+00  0.00000000E+00
  0.00000000E+00  0.00000000E+00  0.00000000E+00
  0.00000000E+00  0.00000000E+00  0.00000000E+00
  0.00000000E+00  0.00000000E+00  0.00000000E+00
  0.00000000E+00  0.00000000E+00  0.00000000E+00
  0.00000000E+00  0.00000000E+00  0.00000000E+00
  0.00000000E+00  0.00000000E+00  0.00000000E+00
  0.00000000E+00  0.00000000E+00  0.00000000E+00
  0.00000000E+00  0.00000000E+00  0.00000000E+00
  0.00000000E+00  0.00000000E+00  0.00000000E+00
  0.00000000E+00  0.00000000E+00  0.00000000E+00
  0.00000000E+00  0.00000000E+00  0.00000000E+00
  0.00000000E+00  0.00000000E+00  0.00000000E+00
  0.00000000E+00  0.00000000E+00  0.00000000E+00
  0.00000000E+00  0.00000000E+00  0.00000000E+00
  0.00000000E+00  0.00000000E+00  0.00000000E+00
  0.00000000E+00  0.00000000E+00  0.00000000E+00
  0.00000000E+00  0.00000000E+00  0.00000000E+00
  0.00000000E+00  0.00000000E+00  0.00000000E+00
  0.00000000E+00  0.00000000E+00  0.00000000E+00
  0.00000000E+00  0.00000000E+00  0.00000000E+00
  0.00000000E+00  0.00000000E+00  0.00000000E+00
  0.00000000E+00  0.00000000E+00  0.00000000E+00
  0.00000000E+00  0.00000000E+00  0.00000000E+00
  0.00000000E+00  0.00000000E+00  0.00000000E+00
  0.00000000E+00  0.00000000E+00  0.00000000E+00
  0.00000000E+00  0.00000000E+00  0.00000000E+00
  0.00000000E+00  0.00000000E+00  0.00000000E+00
  0.00000000E+00  0.00000000E+00  0.00000000E+00
  0.00000000E+00  0.00000000E+00  0.00000000E+00
  0.00000000E+00  0.00000000E+00  0.00000000E+00
  0.00000000E+00  0.00000000E+00  0.00000000E+00
  0.00000000E+00  0.00000000E+00  0.00000000E+00
  0.00000000E+00  0.00000000E+00  0.00000000E+00
  0.00000000E+00  0.00000000E+00  0.00000000E+00
  0.00000000E+00  0.00000000E+00  0.00000000E+00
  0.00000000E+00  0.00000000E+00  0.00000000E+00
  0.00000000E+00  0.00000000E+00  0.00000000E+00
  0.00000000E+00  0.00000000E+00  0.00000000E+00
  0.00000000E+00  0.00000000E+00  0.00000000E+00
  0.00000000E+00  0.00000000E+00  0.00000000E+00
  0.00000000E+00  0.00000000E+00  0.00000000E+00
  0.00000000E+00  0.00000000E+00  0.00000000E+00
  0.00000000E+00  0.00000000E+00  0.00000000E+00
  0.00000000E+00  0.00000000E+00  0.00000000E+00
  0.00000000E+00  0.00000000E+00  0.00000000E+00
  0.00000000E+00  0.00000000E+00  0.00000000E+00
  0.00000000E+00  0.00000000E+00  0.00000000E+00
  0.00000000E+00  0.00000000E+00  0.00000000E+00
  0.00000000E+00  0.00000000E+00  0.00000000E+00
  0.00000000E+00  0.00000000E+00  0.00000000E+00
