Ga  O
   1.00000000000000
    11.8609006217508721    0.0000000000000000   -2.9126240731473736
     0.0000000000000000   12.1318613217336004    0.0000000000000000
     0.0000000000000000    0.0000000000000000   11.5777857733786895
   Ga   O
    63    96
Direct
  0.5000000000000000  0.3758128388648643  0.2500000000000000
  0.0904870230006377  0.0001432366998377  0.3965865637991112
  0.4104062945063723  0.6244857393653308  0.6052933068233636
  0.5895937054936277  0.6244857393653308  0.8947066931766364
  0.1595181796205760  0.6238036165681418  0.6562720142749939
  0.8404818203794241  0.6238036165681418  0.8437279857250132
  0.9091319922052145  0.4992052139393817  0.6046271905821438
  0.0908680077947855  0.4992052139393817  0.8953728094178562
  0.8384052789947529  0.3749461554974689  0.8457923894874764
  0.9104308141184535  0.2503245588319492  0.6046783440686616
  0.0895691858815536  0.2503245588319492  0.8953216559313384
  0.8396529822498433  0.6251030504365419  0.3437580624792229
  0.6587462780013752  0.0018356215702139  0.6547469286680206
  0.1603470177501567  0.6251030504365419  0.1562419375207771
  0.0853362370093115  0.2507973256940068  0.3943347716120537
  0.9146637629906956  0.2507973256940068  0.1056652283879463
  0.8297702532645174  0.3749630232351679  0.3472563955542392
  0.1702297467354826  0.3749630232351679  0.1527436044457608
  0.3378822610230336  0.2518817971005434  0.3488189968449223
  0.6621177389769664  0.2518817971005434  0.1511810031550776
  0.4125235402704978  0.6140364499430874  0.1060697923003135
  0.3378400846830407  0.4987287900164394  0.3482740846732394
  0.5874764597295022  0.6140364499430874  0.3939302076996865
  0.3412537219986247  0.0018356215702139  0.8452530713319865
  0.4102373905625824  0.1249975881527945  0.6053259651135693
  0.5897626094374175  0.1249975881527945  0.8946740348864307
  0.9095129769993624  0.0001432366998377  0.1034134362008888
  0.8394025419311320  0.1244766574763471  0.3432948046056872
  0.1605974580688680  0.1244766574763471  0.1567051953943128
  0.5864323189558945  0.1359928798116089  0.3936381538661921
  0.4135676810441056  0.1359928798116089  0.1063618461338080
  0.3432484281447331  0.0012521029767825  0.3425711103126098
  0.6567515718552669  0.0012521029767825  0.1574288896873902
  0.0864253978606416  0.4990294505747087  0.3943836101939117
  0.6621599153169593  0.4987287900164394  0.1517259153267606
  0.6604841297259011  0.2549916561446672  0.6477682362813033
  0.9135746021393655  0.4990294505747087  0.1056163898060883
  0.4136403740207745  0.3748133849178155  0.6028434979547821
  0.5863596259792255  0.3748133849178155  0.8971565020452179
  0.1615947210052471  0.3749461554974689  0.6542076105125378
  0.6602387288109257  0.4953592877528985  0.6495378948009348
  0.3397612711890743  0.4953592877528985  0.8504621051990723
  0.0897615087917604  0.9998923549949776  0.8968193760672454
  0.9102384912082396  0.9998923549949776  0.6031806239327546
  0.8403034889824170  0.1255769833365592  0.8433929252300115
  0.1596965110175830  0.1255769833365592  0.6566070747699956
  0.3395158702740989  0.2549916561446672  0.8522317637187038
  0.0892416720584115  0.7501474467131007  0.3963493072998003
  0.9107583279415885  0.7501474467131007  0.1036506927001997
  0.8400098571351647  0.8753824848200185  0.3427222761035180
  0.1599901428648353  0.8753824848200185  0.1572777238964820
  0.5879297546756115  0.8747670289031536  0.3962742553547224
  0.4120702453243886  0.8747670289031536  0.1037257446452776
  0.3428099446683089  0.7488458851467399  0.3433045750318065
  0.6571900553316911  0.7488458851467399  0.1566954249681935
  0.0885181995783495  0.7502027619546898  0.8965465667890742
  0.9114818004216434  0.7502027619546898  0.6034534332109258
  0.8396573410036285  0.8752379866886736  0.8426664061406347
  0.1603426589963715  0.8752379866886736  0.6573335938593653
  0.5897307489511906  0.8751117466287852  0.8964829829097056
  0.4102692510488094  0.8751117466287852  0.6035170170902944
  0.3409363221154174  0.7483314145834766  0.8459461133341807
  0.6590636778845826  0.7483314145834766  0.6540538866658193
  0.6742832433075646  0.3753259277808644  0.7875878392310640
  0.3257167566924354  0.3753259277808644  0.7124121607689431
  0.5021552647951772  0.2484686255091140  0.8721803218811669
  0.1628424317947001  0.5014692405668039  0.0525311348215695
  0.5043788951384448  0.4958761656484716  0.1367528317921017
  0.9977364721554949  0.6256296946089311  0.1282910322752103
  0.5022161764486520  0.5008984297737195  0.8719396031974519
  0.4977838235513480  0.5008984297737195  0.6280603968025481
  0.3369384518806836  0.6239770408613288  0.9487290837344019
  0.6630615481193164  0.6239770408613288  0.5512709162655981
  0.1692848724198981  0.5025169959284868  0.7769919453940426
  0.8307151275801018  0.5025169959284868  0.7230080546059645
  0.0036723741736358  0.6246572970183024  0.8728800424572934
  0.9963276258263712  0.6246572970183024  0.6271199575426994
  0.8387022703670324  0.5008222917622694  0.9490488294368179
  0.1612977296329677  0.5008222917622694  0.5509511705631821
  0.6746730576022867  0.6270972228390904  0.2820763637002442
  0.3253269423977133  0.6270972228390904  0.2179236362997628
  0.4956211048615551  0.4958761656484716  0.3632471682079055
  0.4978447352048229  0.2484686255091140  0.6278196781188331
  0.3347132335985168  0.6257451925823878  0.4485371703909564
  0.6652867664014832  0.6257451925823878  0.0514628296090436
  0.1708083960612166  0.5019273802516642  0.2807190482862900
  0.8291916039387834  0.5019273802516642  0.2192809517137171
  0.0022635278445122  0.6256296946089311  0.3717089677247968
  0.8371575682052999  0.5014692405668039  0.4474688651784305
  0.3237891090335065  0.3759592680560211  0.9384893240544784
  0.6693997712110612  0.3757564723823917  0.2696864523537553
  0.1694312687229092  0.2462142297433114  0.7777253825803259
  0.1724859862714735  0.9992023005029390  0.7815898506084217
  0.8275140137285265  0.9992023005029390  0.7184101493915854
  0.0034357018365288  0.1238507062455762  0.8727907723675368
  0.9965642981634784  0.1238507062455762  0.6272092276324561
  0.8362450476066525  0.9996964971627803  0.9465187053451698
  0.1637549523933475  0.9996964971627803  0.5534812946548302
  0.6737685764885136  0.1226881097897069  0.2819078343323684
  0.3262314235114864  0.1226881097897069  0.2180921656676387
  0.6626420857704965  0.1249392199237914  0.5508281454835353
  0.5047582158171683  0.0025387789230283  0.3729573887852507
  0.3352483729503427  0.1232435986050899  0.4483499609686951
  0.6647516270496573  0.1232435986050899  0.0516500390313049
  0.1727949548914693  0.9989288846774470  0.2810981809210700
  0.8272050451085308  0.9989288846774470  0.2189018190789372
  0.0022447627960012  0.1231483716462564  0.3716348844053403
  0.9977552372040059  0.1231483716462564  0.1283651155946669
  0.8366734429749162  0.9990460209694831  0.4468112218877870
  0.1633265570250838  0.9990460209694831  0.0531887781122130
  0.4952417841828318  0.0025387789230283  0.1270426112147564
  0.3373579142295035  0.1249392199237914  0.9491718545164647
  0.4968113923188207  0.9997597713983875  0.6281631032419110
  0.5031886076811793  0.9997597713983875  0.8718368967580890
  0.8305687312770909  0.2462142297433114  0.7222746174196812
  0.0028161448803353  0.3754352728425485  0.8723604265248528
  0.9971838551196719  0.3754352728425485  0.6276395734751401
  0.8392807310439495  0.2486196983682004  0.9489844075080053
  0.1607192689560505  0.2486196983682004  0.5510155924919947
  0.3268924584289533  0.6260956240332050  0.7197677464889850
  0.3306002287889388  0.3757564723823917  0.2303135476462518
  0.4959375891594008  0.2560584653247815  0.3639263809978586
  0.5040624108405991  0.2560584653247815  0.1360736190021485
  0.3287493274146887  0.3758447105774241  0.4517638818387972
  0.6712506725853113  0.3758447105774241  0.0482361181612028
  0.1709938931383584  0.2473227093414901  0.2812983740210394
  0.8290061068616416  0.2473227093414901  0.2187016259789678
  0.9987612453230716  0.3755409369873291  0.3714628120534288
  0.0012387546769355  0.3755409369873291  0.1285371879465782
  0.8378311336914708  0.2477656319873684  0.4474067682095070
  0.1621688663085292  0.2477656319873684  0.0525932317904930
  0.6730223879306897  0.1228663438830051  0.7802742128190743
  0.3269776120693103  0.1228663438830051  0.7197257871809328
  0.6762108909664936  0.3759592680560211  0.5615106759455216
  0.6731075415710467  0.6260956240332050  0.7802322535110221
  0.1625348057960768  0.7515715391235960  0.0530596482214178
  0.8374651942039231  0.7515715391235960  0.4469403517785822
  0.9967049880540803  0.8758014192186467  0.1276554628537384
  0.0032950119459197  0.8758014192186467  0.3723445371462616
  0.8274563934087326  0.7518157010122625  0.2185201447365994
  0.1725436065912674  0.7518157010122625  0.2814798552634006
  0.6625624806860708  0.8756794472638313  0.0537243500082181
  0.3374375193139291  0.8756794472638313  0.4462756499917819
  0.4952736326748031  0.7465137517049649  0.1267474213414997
  0.5047263673251969  0.7465137517049649  0.3732525786585003
  0.3288038836041181  0.8753977873710502  0.2193130270677624
  0.6711961163958818  0.8753977873710502  0.2806869729322376
  0.1628956431214765  0.7503556358489613  0.5534584357159965
  0.8371043568785235  0.7503556358489613  0.9465415642840035
  0.9976091444842511  0.8757066266905581  0.6282826487121983
  0.0023908555157489  0.8757066266905581  0.8717173512878017
  0.8276396116794693  0.7509776521715594  0.7181305064868655
  0.1723603883205307  0.7509776521715594  0.7818694935131345
  0.6633063965556223  0.8756218329711016  0.5531928778869440
  0.3366936034443777  0.8756218329711016  0.9468071221130560
  0.4967707550886628  0.7501736969807435  0.6280090921840219
  0.5032292449113372  0.7501736969807435  0.8719909078159781
  0.3275603113822821  0.8753816812313593  0.7189925406107583
  0.6724396886177179  0.8753816812313593  0.7810074593892417

  0.00000000E+00  0.00000000E+00  0.00000000E+00
  0.00000000E+00  0.00000000E+00  0.00000000E+00
  0.00000000E+00  0.00000000E+00  0.00000000E+00
  0.00000000E+00  0.00000000E+00  0.00000000E+00
  0.00000000E+00  0.00000000E+00  0.00000000E+00
  0.00000000E+00  0.00000000E+00  0.00000000E+00
  0.00000000E+00  0.00000000E+00  0.00000000E+00
  0.00000000E+00  0.00000000E+00  0.00000000E+00
  0.00000000E+00  0.00000000E+00  0.00000000E+00
  0.00000000E+00  0.00000000E+00  0.00000000E+00
  0.00000000E+00  0.00000000E+00  0.00000000E+00
  0.00000000E+00  0.00000000E+00  0.00000000E+00
  0.00000000E+00  0.00000000E+00  0.00000000E+00
  0.00000000E+00  0.00000000E+00  0.00000000E+00
  0.00000000E+00  0.00000000E+00  0.00000000E+00
  0.00000000E+00  0.00000000E+00  0.00000000E+00
  0.00000000E+00  0.00000000E+00  0.00000000E+00
  0.00000000E+00  0.00000000E+00  0.00000000E+00
  0.00000000E+00  0.00000000E+00  0.00000000E+00
  0.00000000E+00  0.00000000E+00  0.00000000E+00
  0.00000000E+00  0.00000000E+00  0.00000000E+00
  0.00000000E+00  0.00000000E+00  0.00000000E+00
  0.00000000E+00  0.00000000E+00  0.00000000E+00
  0.00000000E+00  0.00000000E+00  0.00000000E+00
  0.00000000E+00  0.00000000E+00  0.00000000E+00
  0.00000000E+00  0.00000000E+00  0.00000000E+00
  0.00000000E+00  0.00000000E+00  0.00000000E+00
  0.00000000E+00  0.00000000E+00  0.00000000E+00
  0.00000000E+00  0.00000000E+00  0.00000000E+00
  0.00000000E+00  0.00000000E+00  0.00000000E+00
  0.00000000E+00  0.00000000E+00  0.00000000E+00
  0.00000000E+00  0.00000000E+00  0.00000000E+00
  0.00000000E+00  0.00000000E+00  0.00000000E+00
  0.00000000E+00  0.00000000E+00  0.00000000E+00
  0.00000000E+00  0.00000000E+00  0.00000000E+00
  0.00000000E+00  0.00000000E+00  0.00000000E+00
  0.00000000E+00  0.00000000E+00  0.00000000E+00
  0.00000000E+00  0.00000000E+00  0.00000000E+00
  0.00000000E+00  0.00000000E+00  0.00000000E+00
  0.00000000E+00  0.00000000E+00  0.00000000E+00
  0.00000000E+00  0.00000000E+00  0.00000000E+00
  0.00000000E+00  0.00000000E+00  0.00000000E+00
  0.00000000E+00  0.00000000E+00  0.00000000E+00
  0.00000000E+00  0.00000000E+00  0.00000000E+00
  0.00000000E+00  0.00000000E+00  0.00000000E+00
  0.00000000E+00  0.00000000E+00  0.00000000E+00
  0.00000000E+00  0.00000000E+00  0.00000000E+00
  0.00000000E+00  0.00000000E+00  0.00000000E+00
  0.00000000E+00  0.00000000E+00  0.00000000E+00
  0.00000000E+00  0.00000000E+00  0.00000000E+00
  0.00000000E+00  0.00000000E+00  0.00000000E+00
  0.00000000E+00  0.00000000E+00  0.00000000E+00
  0.00000000E+00  0.00000000E+00  0.00000000E+00
  0.00000000E+00  0.00000000E+00  0.00000000E+00
  0.00000000E+00  0.00000000E+00  0.00000000E+00
  0.00000000E+00  0.00000000E+00  0.00000000E+00
  0.00000000E+00  0.00000000E+00  0.00000000E+00
  0.00000000E+00  0.00000000E+00  0.00000000E+00
  0.00000000E+00  0.00000000E+00  0.00000000E+00
  0.00000000E+00  0.00000000E+00  0.00000000E+00
  0.00000000E+00  0.00000000E+00  0.00000000E+00
  0.00000000E+00  0.00000000E+00  0.00000000E+00
  0.00000000E+00  0.00000000E+00  0.00000000E+00
  0.00000000E+00  0.00000000E+00  0.00000000E+00
  0.00000000E+00  0.00000000E+00  0.00000000E+00
  0.00000000E+00  0.00000000E+00  0.00000000E+00
  0.00000000E+00  0.00000000E+00  0.00000000E+00
  0.00000000E+00  0.00000000E+00  0.00000000E+00
  0.00000000E+00  0.00000000E+00  0.00000000E+00
  0.00000000E+00  0.00000000E+00  0.00000000E+00
  0.00000000E+00  0.00000000E+00  0.00000000E+00
  0.00000000E+00  0.00000000E+00  0.00000000E+00
  0.00000000E+00  0.00000000E+00  0.00000000E+00
  0.00000000E+00  0.00000000E+00  0.00000000E+00
  0.00000000E+00  0.00000000E+00  0.00000000E+00
  0.00000000E+00  0.00000000E+00  0.00000000E+00
  0.00000000E+00  0.00000000E+00  0.00000000E+00
  0.00000000E+00  0.00000000E+00  0.00000000E+00
  0.00000000E+00  0.00000000E+00  0.00000000E+00
  0.00000000E+00  0.00000000E+00  0.00000000E+00
  0.00000000E+00  0.00000000E+00  0.00000000E+00
  0.00000000E+00  0.00000000E+00  0.00000000E+00
  0.00000000E+00  0.00000000E+00  0.00000000E+00
  0.00000000E+00  0.00000000E+00  0.00000000E+00
  0.00000000E+00  0.00000000E+00  0.00000000E+00
  0.00000000E+00  0.00000000E+00  0.00000000E+00
  0.00000000E+00  0.00000000E+00  0.00000000E+00
  0.00000000E+00  0.00000000E+00  0.00000000E+00
  0.00000000E+00  0.00000000E+00  0.00000000E+00
  0.00000000E+00  0.00000000E+00  0.00000000E+00
  0.00000000E+00  0.00000000E+00  0.00000000E+00
  0.00000000E+00  0.00000000E+00  0.00000000E+00
  0.00000000E+00  0.00000000E+00  0.00000000E+00
  0.00000000E+00  0.00000000E+00  0.00000000E+00
  0.00000000E+00  0.00000000E+00  0.00000000E+00
  0.00000000E+00  0.00000000E+00  0.00000000E+00
  0.00000000E+00  0.00000000E+00  0.00000000E+00
  0.00000000E+00  0.00000000E+00  0.00000000E+00
  0.00000000E+00  0.00000000E+00  0.00000000E+00
  0.00000000E+00  0.00000000E+00  0.00000000E+00
  0.00000000E+00  0.00000000E+00  0.00000000E+00
  0.00000000E+00  0.00000000E+00  0.00000000E+00
  0.00000000E+00  0.00000000E+00  0.00000000E+00
  0.00000000E+00  0.00000000E+00  0.00000000E+00
  0.00000000E+00  0.00000000E+00  0.00000000E+00
  0.00000000E+00  0.00000000E+00  0.00000000E+00
  0.00000000E+00  0.00000000E+00  0.00000000E+00
  0.00000000E+00  0.00000000E+00  0.00000000E+00
  0.00000000E+00  0.00000000E+00  0.00000000E+00
  0.00000000E+00  0.00000000E+00  0.00000000E+00
  0.00000000E+00  0.00000000E+00  0.00000000E+00
  0.00000000E+00  0.00000000E+00  0.00000000E+00
  0.00000000E+00  0.00000000E+00  0.00000000E+00
  0.00000000E+00  0.00000000E+00  0.00000000E+00
  0.00000000E+00  0.00000000E+00  0.00000000E+00
  0.00000000E+00  0.00000000E+00  0.00000000E+00
  0.00000000E+00  0.00000000E+00  0.00000000E+00
  0.00000000E+00  0.00000000E+00  0.00000000E+00
  0.00000000E+00  0.00000000E+00  0.00000000E+00
  0.00000000E+00  0.00000000E+00  0.00000000E+00
  0.00000000E+00  0.00000000E+00  0.00000000E+00
  0.00000000E+00  0.00000000E+00  0.00000000E+00
  0.00000000E+00  0.00000000E+00  0.00000000E+00
  0.00000000E+00  0.00000000E+00  0.00000000E+00
  0.00000000E+00  0.00000000E+00  0.00000000E+00
  0.00000000E+00  0.00000000E+00  0.00000000E+00
  0.00000000E+00  0.00000000E+00  0.00000000E+00
  0.00000000E+00  0.00000000E+00  0.00000000E+00
  0.00000000E+00  0.00000000E+00  0.00000000E+00
  0.00000000E+00  0.00000000E+00  0.00000000E+00
  0.00000000E+00  0.00000000E+00  0.00000000E+00
  0.00000000E+00  0.00000000E+00  0.00000000E+00
  0.00000000E+00  0.00000000E+00  0.00000000E+00
  0.00000000E+00  0.00000000E+00  0.00000000E+00
  0.00000000E+00  0.00000000E+00  0.00000000E+00
  0.00000000E+00  0.00000000E+00  0.00000000E+00
  0.00000000E+00  0.00000000E+00  0.00000000E+00
  0.00000000E+00  0.00000000E+00  0.00000000E+00
  0.00000000E+00  0.00000000E+00  0.00000000E+00
  0.00000000E+00  0.00000000E+00  0.00000000E+00
  0.00000000E+00  0.00000000E+00  0.00000000E+00
  0.00000000E+00  0.00000000E+00  0.00000000E+00
  0.00000000E+00  0.00000000E+00  0.00000000E+00
  0.00000000E+00  0.00000000E+00  0.00000000E+00
  0.00000000E+00  0.00000000E+00  0.00000000E+00
  0.00000000E+00  0.00000000E+00  0.00000000E+00
  0.00000000E+00  0.00000000E+00  0.00000000E+00
  0.00000000E+00  0.00000000E+00  0.00000000E+00
  0.00000000E+00  0.00000000E+00  0.00000000E+00
  0.00000000E+00  0.00000000E+00  0.00000000E+00
  0.00000000E+00  0.00000000E+00  0.00000000E+00
  0.00000000E+00  0.00000000E+00  0.00000000E+00
  0.00000000E+00  0.00000000E+00  0.00000000E+00
  0.00000000E+00  0.00000000E+00  0.00000000E+00
  0.00000000E+00  0.00000000E+00  0.00000000E+00
  0.00000000E+00  0.00000000E+00  0.00000000E+00
  0.00000000E+00  0.00000000E+00  0.00000000E+00
  0.00000000E+00  0.00000000E+00  0.00000000E+00
  0.00000000E+00  0.00000000E+00  0.00000000E+00
