Ga Ir  O                                
   1.00000000000000     
    11.8609006217508721    0.0000000000000000   -2.9126240731473736
     0.0000000000000000   12.1318613217336004    0.0000000000000000
     0.0000000000000000    0.0000000000000000   11.5777857733786895
   Ga   Ir   O 
    63     1    96
Direct
  0.0898385119158587  0.9994860053937958  0.3962211225394336
  0.4109305091534771  0.6255973956867158  0.6048066889707077
  0.5890731013150030  0.6251688183815477  0.8957520936627087
  0.1596212918294892  0.6251190138877550  0.6550283777530970
  0.8402733771207683  0.6251407140928913  0.8442577635104254
  0.9100373370665743  0.5001858893505979  0.6035236126601221
  0.0894144014356089  0.5007851519511622  0.8944034009090238
  0.8408923078034756  0.3755680021766017  0.8441337665509936
  0.9110846823678599  0.2500717157689809  0.6043134917821995
  0.0891828611768806  0.2500640646361444  0.8971550543702682
  0.8402453295938557  0.6251398616343407  0.3445260491823219
  0.6601776692026148  0.9994325659907657  0.6570122242492610
  0.1586208235552056  0.6265297709662198  0.1542268744665048
  0.0842811493829204  0.2500885133784735  0.4025776710560905
  0.9098754686751150  0.2500906912333020  0.1032289142474636
  0.8404966158991491  0.3755876845340153  0.3438984245885561
  0.1547105072559777  0.3799753933554881  0.1504660753683704
  0.5938994927554025  0.3796738376804816  0.3973067228357514
  0.4132548941488507  0.3756046168452028  0.1009295364583391
  0.6607703622137611  0.2501177261726788  0.1549370512305623
  0.4111985713324995  0.6256701710057265  0.1029428214941217
  0.3409113018873970  0.5068362204508574  0.3414357287765482
  0.5896294676617611  0.6259330357025763  0.3960395066335221
  0.3405175404228417  0.9991211210200843  0.8439646670052624
  0.4129773934428790  0.1249219643482655  0.6097141915042256
  0.5895635527038711  0.1249508487714333  0.8960729979354058
  0.9089832523189846  0.9995109646384983  0.1035120656689767
  0.8404971821036950  0.1246250830180251  0.3439442045183773
  0.1546936681491049  0.1201679776579171  0.1504272450276717
  0.5938579233408673  0.1205783205307640  0.3972879786659165
  0.4132976420233099  0.1246584694100174  0.1009394755682735
  0.3409100506734946  0.9933896659295340  0.3414078542218916
  0.6599303327936193  0.9992355620587221  0.1555419043625875
  0.0898363555564723  0.5006845704477429  0.3962273619954951
  0.6599229169716393  0.5009822937025986  0.1555476298374154
  0.6611671712249964  0.2501123377720711  0.6573883669479498
  0.9089980001154020  0.5006539980505783  0.1035115920760392
  0.4129208206297608  0.3753302528844390  0.6097028020502475
  0.5896306568388240  0.3753626783895506  0.8960871143053186
  0.1590238670455841  0.3759724059970989  0.6574425683723675
  0.6601646297135231  0.5007612300450324  0.6570254315310260
  0.3405222867796761  0.5011117007027426  0.8439760855403187
  0.0894001624797675  0.9993513430364934  0.8943981608945560
  0.9100240580123370  0.9999494327906633  0.6035111649650023
  0.8408666616535234  0.1246313694202195  0.8441613828421254
  0.1590355067693329  0.1241911445645128  0.6574196490182236
  0.3398624024762704  0.2501277972625143  0.8447879340894855
  0.0880753178250955  0.7500901973070722  0.3959347713008782
  0.9110633771318898  0.7500824399991228  0.1038918897948189
  0.8402511200740516  0.8750847878600387  0.3445069121488457
  0.1586044472412797  0.8736294570268515  0.1542317770290985
  0.5896769978992051  0.8743152274226459  0.3960435663944964
  0.4111419134061636  0.8746074071514912  0.1029088520833299
  0.3398488951426852  0.7501169348258246  0.3452328351181603
  0.6601412942254856  0.7501126300559570  0.1549087239131577
  0.0883340800515163  0.7500678132976467  0.8947234254273110
  0.9116427430097261  0.7500710370291541  0.6040749345367596
  0.8402829196373127  0.8750415162928391  0.8442449960575984
  0.1595918662760850  0.8750688633190740  0.6550503337999879
  0.5891451263551412  0.8751564982007290  0.8957690257431071
  0.4108432023363223  0.8746848399812113  0.6047789716001813
  0.3400757469230015  0.7501298367176965  0.8443691231739683
  0.6602208701672317  0.7501087618863644  0.6551816117452093
  0.3404115832363721  0.2501113524986032  0.3398507624390067
  0.6718207535609141  0.3752295631120394  0.7800559062940501
  0.3275442926841776  0.3751543799735573  0.7202935571916033
  0.5024592975437804  0.2501924710425073  0.8723365353512068
  0.1656764333465848  0.5011152590461299  0.0518113716644523
  0.4969808427964245  0.5003253934281294  0.1291217292952478
  0.9974501032435544  0.6241546589911852  0.1278858626337824
  0.5025882269846501  0.4998908397160747  0.8719220292036798
  0.4966045861511508  0.4999868855876351  0.6260869181071305
  0.3356221162492036  0.6245118005922149  0.9471350563360632
  0.6638244684625018  0.6241080796341334  0.5525770997070912
  0.1726032716772445  0.4999366002487759  0.7799482775239136
  0.8277682136793872  0.4994833067552826  0.7194764281935238
  0.0026425557675591  0.6245177006102051  0.8722145732070428
  0.9974790692968933  0.6241725081477394  0.6272632042585901
  0.8355054953893205  0.4998438544733411  0.9470317018161450
  0.1660452567580255  0.4991827349138638  0.5522645324940411
  0.6721475743706331  0.6242694462860097  0.2806086039657804
  0.3273268685466567  0.6245887891405083  0.2186151596690464
  0.5022813931375592  0.5001761821016780  0.3723038621535300
  0.4970468539245929  0.2501567524365533  0.6249876499130381
  0.3353080164757803  0.6246578838779411  0.4476654609614342
  0.6638065806874925  0.6243940326810858  0.0525227906459468
  0.1736472344873786  0.4978393092389372  0.2802445620354071
  0.8272536587370942  0.4995615853182210  0.2194894647888797
  0.0028514121884224  0.6242271448743503  0.3715632269724733
  0.8350743096071536  0.4996799296484634  0.4468623685618557
  0.3347948681240790  0.3757261624934080  0.9473021585637459
  0.6719772430285605  0.3746491638381564  0.2806160415359686
  0.1725343475292925  0.2501155049297296  0.7820892659383252
  0.1725922487983851  0.0002610892358544  0.7799437858393971
  0.8277639899065187  0.0006561758210517  0.7194800524319291
  0.0038142849287227  0.1245156427475637  0.8740013663591742
  0.9972979543483622  0.1245675700827434  0.6272906451765393
  0.8355073570105768  0.0003341063175535  0.9470331590671466
  0.1660405959206752  0.0009598563092393  0.5522589899409714
  0.6719788222865669  0.1256275191569496  0.2806235928514558
  0.3294046218891169  0.1253420594092522  0.2218815987809191
  0.6634458239796438  0.1251804069281191  0.5531377640940727
  0.5022801179081305  0.0000197920971638  0.3722897870463763
  0.3403446330812965  0.1260696777344590  0.4461335965604782
  0.6629600504113113  0.1245651370677531  0.0531239124757615
  0.1736420657923340  0.0023998757053550  0.2802337707329198
  0.8272418025912547  0.0006053562249012  0.2194969832376889
  0.0030283998850146  0.1241216319344550  0.3712418335240313
  0.9966120305539120  0.1245876237850607  0.1287942967955197
  0.8350713399418578  0.0005150515796969  0.4468732204088945
  0.1656543346803029  0.9990130242479339  0.0517983977369402
  0.4969876288395904  0.9998979275276016  0.1290911779732987
  0.3348243480001654  0.1245234144902111  0.9472975686882257
  0.4966163010260268  0.0002272599677602  0.6260794251200603
  0.5025899461451538  0.0003575420518917  0.8719336724943658
  0.8279981820172927  0.2500725567249453  0.7194423191329176
  0.0038224144982089  0.3756390755660479  0.8739833089000640
  0.9972971635190252  0.3755760569804332  0.6272925570353506
  0.8363054160353559  0.2501443389328019  0.9468135126732694
  0.1664551413630827  0.2500880538134397  0.5547930858646029
  0.3276181866654774  0.6244563311633423  0.7192733307015587
  0.3294016868709284  0.3748891805394328  0.2218775493837699
  0.5020807525821693  0.2501516622578787  0.3722019571550627
  0.4970997610974958  0.2501505235639615  0.1312394397184539
  0.3403137015429981  0.3741936223864993  0.4461173825523077
  0.6629770758433602  0.3756623384562525  0.0531403154111124
  0.1776574732889234  0.2501358930498185  0.2897257531116923
  0.8275710753936145  0.2501081002072558  0.2189698609775337
  0.0030350563226120  0.3760570658189949  0.3712402371835153
  0.9966234590274837  0.3755829693328262  0.1287989986526001
  0.8375405792782965  0.2501279413814514  0.4468063789093565
  0.1635827090450013  0.2500863637846695  0.0572105295068404
  0.6718036997353308  0.1250309542914430  0.7800817125208767
  0.3275741463568687  0.1250186904584370  0.7202861381652435
  0.6634959664420608  0.3750083690942722  0.5531376661965193
  0.6721219726679103  0.6242718442762826  0.7802892331846752
  0.1638420971758534  0.7501000695448266  0.0519456692618869
  0.8364598919926867  0.7501387445437312  0.4471612201948963
  0.9974406505279768  0.8760225275870149  0.1279048251037605
  0.0028440981749190  0.8759567836469232  0.3715569070927873
  0.8274818711542236  0.7500942431682111  0.2190136744786277
  0.1726212700375947  0.7501243239379272  0.2806473169276145
  0.6638710340945793  0.8758224840114270  0.0525311987075311
  0.3352687388918117  0.8755966877907285  0.4476385118978330
  0.4974764906998319  0.7501742597960201  0.1281366807787189
  0.5018840205012551  0.7501454546280816  0.3720930427744181
  0.3273123428677618  0.8756101648377647  0.2186103269333766
  0.6721606889603775  0.8759762400352992  0.2805931662120308
  0.1641092762260535  0.7501240260557326  0.5522878423449885
  0.8362471819224425  0.7501154761749341  0.9471845915269796
  0.9974694165161417  0.8759698079347743  0.6272786712384678
  0.0026409308696263  0.8756201419271311  0.8722059313615450
  0.8275329079086701  0.7500783475284426  0.7189343570061583
  0.1725299380103807  0.7501060278463869  0.7803854536379325
  0.6638774762561781  0.8760726502199395  0.5525706674778638
  0.3355632140302557  0.8757470221062833  0.9471206207858024
  0.4973417288580090  0.7501895185221075  0.6270858309663035
  0.5025451824494725  0.7502029239085172  0.8721535028653650
  0.3275829010964675  0.8757496266936757  0.7192808716157120
  0.6721541619776987  0.8759781069938797  0.7802864936824078
 
  0.00000000E+00  0.00000000E+00  0.00000000E+00
  0.00000000E+00  0.00000000E+00  0.00000000E+00
  0.00000000E+00  0.00000000E+00  0.00000000E+00
  0.00000000E+00  0.00000000E+00  0.00000000E+00
  0.00000000E+00  0.00000000E+00  0.00000000E+00
  0.00000000E+00  0.00000000E+00  0.00000000E+00
  0.00000000E+00  0.00000000E+00  0.00000000E+00
  0.00000000E+00  0.00000000E+00  0.00000000E+00
  0.00000000E+00  0.00000000E+00  0.00000000E+00
  0.00000000E+00  0.00000000E+00  0.00000000E+00
  0.00000000E+00  0.00000000E+00  0.00000000E+00
  0.00000000E+00  0.00000000E+00  0.00000000E+00
  0.00000000E+00  0.00000000E+00  0.00000000E+00
  0.00000000E+00  0.00000000E+00  0.00000000E+00
  0.00000000E+00  0.00000000E+00  0.00000000E+00
  0.00000000E+00  0.00000000E+00  0.00000000E+00
  0.00000000E+00  0.00000000E+00  0.00000000E+00
  0.00000000E+00  0.00000000E+00  0.00000000E+00
  0.00000000E+00  0.00000000E+00  0.00000000E+00
  0.00000000E+00  0.00000000E+00  0.00000000E+00
  0.00000000E+00  0.00000000E+00  0.00000000E+00
  0.00000000E+00  0.00000000E+00  0.00000000E+00
  0.00000000E+00  0.00000000E+00  0.00000000E+00
  0.00000000E+00  0.00000000E+00  0.00000000E+00
  0.00000000E+00  0.00000000E+00  0.00000000E+00
  0.00000000E+00  0.00000000E+00  0.00000000E+00
  0.00000000E+00  0.00000000E+00  0.00000000E+00
  0.00000000E+00  0.00000000E+00  0.00000000E+00
  0.00000000E+00  0.00000000E+00  0.00000000E+00
  0.00000000E+00  0.00000000E+00  0.00000000E+00
  0.00000000E+00  0.00000000E+00  0.00000000E+00
  0.00000000E+00  0.00000000E+00  0.00000000E+00
  0.00000000E+00  0.00000000E+00  0.00000000E+00
  0.00000000E+00  0.00000000E+00  0.00000000E+00
  0.00000000E+00  0.00000000E+00  0.00000000E+00
  0.00000000E+00  0.00000000E+00  0.00000000E+00
  0.00000000E+00  0.00000000E+00  0.00000000E+00
  0.00000000E+00  0.00000000E+00  0.00000000E+00
  0.00000000E+00  0.00000000E+00  0.00000000E+00
  0.00000000E+00  0.00000000E+00  0.00000000E+00
  0.00000000E+00  0.00000000E+00  0.00000000E+00
  0.00000000E+00  0.00000000E+00  0.00000000E+00
  0.00000000E+00  0.00000000E+00  0.00000000E+00
  0.00000000E+00  0.00000000E+00  0.00000000E+00
  0.00000000E+00  0.00000000E+00  0.00000000E+00
  0.00000000E+00  0.00000000E+00  0.00000000E+00
  0.00000000E+00  0.00000000E+00  0.00000000E+00
  0.00000000E+00  0.00000000E+00  0.00000000E+00
  0.00000000E+00  0.00000000E+00  0.00000000E+00
  0.00000000E+00  0.00000000E+00  0.00000000E+00
  0.00000000E+00  0.00000000E+00  0.00000000E+00
  0.00000000E+00  0.00000000E+00  0.00000000E+00
  0.00000000E+00  0.00000000E+00  0.00000000E+00
  0.00000000E+00  0.00000000E+00  0.00000000E+00
  0.00000000E+00  0.00000000E+00  0.00000000E+00
  0.00000000E+00  0.00000000E+00  0.00000000E+00
  0.00000000E+00  0.00000000E+00  0.00000000E+00
  0.00000000E+00  0.00000000E+00  0.00000000E+00
  0.00000000E+00  0.00000000E+00  0.00000000E+00
  0.00000000E+00  0.00000000E+00  0.00000000E+00
  0.00000000E+00  0.00000000E+00  0.00000000E+00
  0.00000000E+00  0.00000000E+00  0.00000000E+00
  0.00000000E+00  0.00000000E+00  0.00000000E+00
  0.00000000E+00  0.00000000E+00  0.00000000E+00
  0.00000000E+00  0.00000000E+00  0.00000000E+00
  0.00000000E+00  0.00000000E+00  0.00000000E+00
  0.00000000E+00  0.00000000E+00  0.00000000E+00
  0.00000000E+00  0.00000000E+00  0.00000000E+00
  0.00000000E+00  0.00000000E+00  0.00000000E+00
  0.00000000E+00  0.00000000E+00  0.00000000E+00
  0.00000000E+00  0.00000000E+00  0.00000000E+00
  0.00000000E+00  0.00000000E+00  0.00000000E+00
  0.00000000E+00  0.00000000E+00  0.00000000E+00
  0.00000000E+00  0.00000000E+00  0.00000000E+00
  0.00000000E+00  0.00000000E+00  0.00000000E+00
  0.00000000E+00  0.00000000E+00  0.00000000E+00
  0.00000000E+00  0.00000000E+00  0.00000000E+00
  0.00000000E+00  0.00000000E+00  0.00000000E+00
  0.00000000E+00  0.00000000E+00  0.00000000E+00
  0.00000000E+00  0.00000000E+00  0.00000000E+00
  0.00000000E+00  0.00000000E+00  0.00000000E+00
  0.00000000E+00  0.00000000E+00  0.00000000E+00
  0.00000000E+00  0.00000000E+00  0.00000000E+00
  0.00000000E+00  0.00000000E+00  0.00000000E+00
  0.00000000E+00  0.00000000E+00  0.00000000E+00
  0.00000000E+00  0.00000000E+00  0.00000000E+00
  0.00000000E+00  0.00000000E+00  0.00000000E+00
  0.00000000E+00  0.00000000E+00  0.00000000E+00
  0.00000000E+00  0.00000000E+00  0.00000000E+00
  0.00000000E+00  0.00000000E+00  0.00000000E+00
  0.00000000E+00  0.00000000E+00  0.00000000E+00
  0.00000000E+00  0.00000000E+00  0.00000000E+00
  0.00000000E+00  0.00000000E+00  0.00000000E+00
  0.00000000E+00  0.00000000E+00  0.00000000E+00
  0.00000000E+00  0.00000000E+00  0.00000000E+00
  0.00000000E+00  0.00000000E+00  0.00000000E+00
  0.00000000E+00  0.00000000E+00  0.00000000E+00
  0.00000000E+00  0.00000000E+00  0.00000000E+00
  0.00000000E+00  0.00000000E+00  0.00000000E+00
  0.00000000E+00  0.00000000E+00  0.00000000E+00
  0.00000000E+00  0.00000000E+00  0.00000000E+00
  0.00000000E+00  0.00000000E+00  0.00000000E+00
  0.00000000E+00  0.00000000E+00  0.00000000E+00
  0.00000000E+00  0.00000000E+00  0.00000000E+00
  0.00000000E+00  0.00000000E+00  0.00000000E+00
  0.00000000E+00  0.00000000E+00  0.00000000E+00
  0.00000000E+00  0.00000000E+00  0.00000000E+00
  0.00000000E+00  0.00000000E+00  0.00000000E+00
  0.00000000E+00  0.00000000E+00  0.00000000E+00
  0.00000000E+00  0.00000000E+00  0.00000000E+00
  0.00000000E+00  0.00000000E+00  0.00000000E+00
  0.00000000E+00  0.00000000E+00  0.00000000E+00
  0.00000000E+00  0.00000000E+00  0.00000000E+00
  0.00000000E+00  0.00000000E+00  0.00000000E+00
  0.00000000E+00  0.00000000E+00  0.00000000E+00
  0.00000000E+00  0.00000000E+00  0.00000000E+00
  0.00000000E+00  0.00000000E+00  0.00000000E+00
  0.00000000E+00  0.00000000E+00  0.00000000E+00
  0.00000000E+00  0.00000000E+00  0.00000000E+00
  0.00000000E+00  0.00000000E+00  0.00000000E+00
  0.00000000E+00  0.00000000E+00  0.00000000E+00
  0.00000000E+00  0.00000000E+00  0.00000000E+00
  0.00000000E+00  0.00000000E+00  0.00000000E+00
  0.00000000E+00  0.00000000E+00  0.00000000E+00
  0.00000000E+00  0.00000000E+00  0.00000000E+00
  0.00000000E+00  0.00000000E+00  0.00000000E+00
  0.00000000E+00  0.00000000E+00  0.00000000E+00
  0.00000000E+00  0.00000000E+00  0.00000000E+00
  0.00000000E+00  0.00000000E+00  0.00000000E+00
  0.00000000E+00  0.00000000E+00  0.00000000E+00
  0.00000000E+00  0.00000000E+00  0.00000000E+00
  0.00000000E+00  0.00000000E+00  0.00000000E+00
  0.00000000E+00  0.00000000E+00  0.00000000E+00
  0.00000000E+00  0.00000000E+00  0.00000000E+00
  0.00000000E+00  0.00000000E+00  0.00000000E+00
  0.00000000E+00  0.00000000E+00  0.00000000E+00
  0.00000000E+00  0.00000000E+00  0.00000000E+00
  0.00000000E+00  0.00000000E+00  0.00000000E+00
  0.00000000E+00  0.00000000E+00  0.00000000E+00
  0.00000000E+00  0.00000000E+00  0.00000000E+00
  0.00000000E+00  0.00000000E+00  0.00000000E+00
  0.00000000E+00  0.00000000E+00  0.00000000E+00
  0.00000000E+00  0.00000000E+00  0.00000000E+00
  0.00000000E+00  0.00000000E+00  0.00000000E+00
  0.00000000E+00  0.00000000E+00  0.00000000E+00
  0.00000000E+00  0.00000000E+00  0.00000000E+00
  0.00000000E+00  0.00000000E+00  0.00000000E+00
  0.00000000E+00  0.00000000E+00  0.00000000E+00
  0.00000000E+00  0.00000000E+00  0.00000000E+00
  0.00000000E+00  0.00000000E+00  0.00000000E+00
  0.00000000E+00  0.00000000E+00  0.00000000E+00
  0.00000000E+00  0.00000000E+00  0.00000000E+00
  0.00000000E+00  0.00000000E+00  0.00000000E+00
  0.00000000E+00  0.00000000E+00  0.00000000E+00
  0.00000000E+00  0.00000000E+00  0.00000000E+00
  0.00000000E+00  0.00000000E+00  0.00000000E+00
  0.00000000E+00  0.00000000E+00  0.00000000E+00
  0.00000000E+00  0.00000000E+00  0.00000000E+00
  0.00000000E+00  0.00000000E+00  0.00000000E+00
  0.00000000E+00  0.00000000E+00  0.00000000E+00
