Ga Ir  O
   1.00000000000000
    11.8609006217508721    0.0000000000000000   -2.9126240731473736
     0.0000000000000000   12.1318613217336004    0.0000000000000000
     0.0000000000000000    0.0000000000000000   11.5777857733786895
   Ga   Ir   O
    63     1    96
Direct
  0.0901698089345252  0.9999808626658896  0.3963293117423228
  0.4111025939427927  0.6251397455654107  0.6042039052386194
  0.5892622639456765  0.6250474976828811  0.8960512292580447
  0.1595408009901323  0.6249685516277338  0.6554945345326102
  0.8404874364825907  0.6249870209073886  0.8441358545513474
  0.9100867897091287  0.5000417584573728  0.6037283563293170
  0.0896882246972407  0.5002157304966086  0.8957960401426300
  0.8404749142936964  0.3752702125866433  0.8441748342742594
  0.9114265242552230  0.2500730375389601  0.6040729480683905
  0.0888097709138182  0.2500752604278225  0.8964450054825669
  0.8405896315545576  0.6249745267889182  0.3442088944896512
  0.6598593329103324  0.9996548705900625  0.6567360357930446
  0.1592878663404521  0.6251042249483076  0.1557285419723357
  0.0883276942221305  0.2500898773623204  0.3975583359615940
  0.9111146729660765  0.2500862392041620  0.1039121727353551
  0.8408499587860546  0.3754441093418340  0.3441619466469107
  0.1575272370136508  0.3764776453450481  0.1545833897309334
  0.5918926338998186  0.3768117053917283  0.3973102917341494
  0.4114518082505411  0.3756569335278492  0.1032924415636445
  0.6600043327199056  0.2501357868259527  0.1557276605356578
  0.4108774522597010  0.6251860894518014  0.1038402320448962
  0.3409924585650894  0.5024418015066182  0.3442784369771694
  0.5897694690780272  0.6254254711267416  0.3960797124142490
  0.3406602583669062  0.0000372202490433  0.8437166846264789
  0.4112688522578145  0.1249683172655016  0.6038398936314388
  0.5892987993678391  0.1250971288219386  0.8960195912829477
  0.9096972947122768  0.9995457296350233  0.1034728857491202
  0.8408467185069688  0.1247718712407660  0.3441843484120016
  0.1575362235081473  0.1237119783335474  0.1545480661160044
  0.5918716849225655  0.1234117207398983  0.3973020852787074
  0.4115094102107184  0.1245984316556331  0.1032850486960827
  0.3410137600167993  0.9977588552358255  0.3442560209721326
  0.6598719158251276  0.9999572300877689  0.1561162778164422
  0.0901627499063309  0.5001826137507446  0.3963406412798615
  0.6598618321789750  0.5002740405961893  0.1561206493646716
  0.6598900333067863  0.2500982981400577  0.6550269550937736
  0.9097011371239341  0.5006106985857227  0.1034877807772937
  0.4112103455432030  0.3753089538961386  0.6038411508731286
  0.5893695341813275  0.3752269682444409  0.8960346928529194
  0.1598079386675048  0.3754509179322236  0.6562626056443018
  0.6598549522258937  0.5005272094869183  0.6567279502706110
  0.3406679196206253  0.5001951562036764  0.8437385125865418
  0.0896667634760950  0.9999260354599623  0.8957845363999217
  0.9100678559896878  0.0001038654529942  0.6037278068083100
  0.8404609940397691  0.1249351517375313  0.8442045436226223
  0.1598178473708963  0.1247196415948007  0.6562265804615973
  0.3403218510350903  0.2501300370456674  0.8445121926940381
  0.0884750108975029  0.7500874354677481  0.3958078060706480
  0.9112303029990271  0.7500786838299389  0.1037952214907017
  0.8406075336475793  0.8752436416319201  0.3441830159682485
  0.1592681189307255  0.8750663974311874  0.1557368725243833
  0.5898593513453186  0.8748311037126180  0.3960888112583153
  0.4108101509362423  0.8750821234509026  0.1038175815919789
  0.3402403126265112  0.7501200482119020  0.3444561856472658
  0.6599472173269586  0.7501259003885661  0.1553596940229624
  0.0886420228508047  0.7500678926475598  0.8958107154948051
  0.9113975817156940  0.7500738454386839  0.6039267322703654
  0.8405023059127575  0.8752131077526658  0.8441179078641583
  0.1595120470495565  0.8752175394238018  0.6555129665527177
  0.5893259577782569  0.8752789100018273  0.8960623228659190
  0.4110152627130814  0.8751714654147801  0.6041839294105047
  0.3402413882420417  0.7501351228845572  0.8444850083165582
  0.6599113825507626  0.7501114878499741  0.6552250479009594
  0.3389549898326125  0.2500994852058353  0.3364336566613667
  0.6726185117762696  0.3754116451749830  0.7810731396368337
  0.3279282275904969  0.3755643300011851  0.7194670740738399
  0.5027752574081118  0.2502076686296545  0.8728965719082679
  0.1641536106397654  0.5005043169810847  0.0524480634739765
  0.4974645134493146  0.5003831968893936  0.1277133058738976
  0.9970868750692320  0.6245912711497900  0.1274277682140869
  0.5029211689821420  0.5000991784538793  0.8723243700743228
  0.4976123634761038  0.5003813923757563  0.6285087904891460
  0.3360378382582783  0.6245106834629626  0.9471360792084882
  0.6643259264139960  0.6246588859160562  0.5528753792083997
  0.1725106554111249  0.5001359016877315  0.7805551656887719
  0.8279751729112319  0.5003018756837341  0.7198211538327175
  0.0027786802907691  0.6245146574188700  0.8720204902200650
  0.9971708184184791  0.6243895839269558  0.6276165897807369
  0.8354730218360159  0.5001928370642540  0.9469346869239350
  0.1643481393995189  0.5001160332944573  0.5530622025163231
  0.6726928381690007  0.6250181615756025  0.2805925114790805
  0.3276647001851278  0.6251549418409562  0.2192517389453888
  0.5036742781463591  0.5004809577994944  0.3719123510544093
  0.4973571110137801  0.2501729003569942  0.6280345951275776
  0.3358582544269955  0.6255351477766714  0.4475503437220077
  0.6641847906381990  0.6244982943798444  0.0527391361209943
  0.1716971529505991  0.5007759686395443  0.2800207747551218
  0.8278470646278427  0.5003886492976123  0.2194468484717422
  0.0028176741001250  0.6244064329297381  0.3722547161226224
  0.8354001535555401  0.5001536888933171  0.4471146602725584
  0.3359074947036353  0.3758414890429105  0.9471772643234745
  0.6733241116740804  0.3761903900169726  0.2804196542513470
  0.1725370121168896  0.2501169089110775  0.7813934208566451
  0.1724991139759121  0.0000592018282744  0.7805454759846562
  0.8279754116736006  0.9998395228287638  0.7198290200880594
  0.0029536075767553  0.1244439898115924  0.8725427896491702
  0.9972653529510942  0.1244044834435407  0.6279495147159403
  0.8354698881904333  0.9999980188207975  0.9469328934224733
  0.1643411848610611  0.0000246878629232  0.5530530854285204
  0.6733307746927049  0.1240377713992864  0.2804312915571393
  0.3266615585542296  0.1204132787751055  0.2178907958217643
  0.6657349764065507  0.1235200934202772  0.5541115292145782
  0.5036909530659338  0.9997047794774582  0.3718968198390186
  0.3357346548374677  0.1198311093010673  0.4478758035104008
  0.6637821810369401  0.1246446823391581  0.0529107874635532
  0.1716979003975673  0.9994526243002331  0.2800075849121348
  0.8278482106399535  0.9997767413863170  0.2194429180650941
  0.0029002112868977  0.1242441879090599  0.3728725814741959
  0.9963139287583047  0.1240785910666665  0.1273204802942300
  0.8353897672783784  0.0000410170551639  0.4471098249172419
  0.1641368404174222  0.9996357087795045  0.0524397958757261
  0.4974694336728503  0.9998234650801232  0.1277163483793048
  0.3359512761816055  0.1244090471111126  0.9471720744517903
  0.4976180942395206  0.9998417026942790  0.6285155562633458
  0.5029123084509729  0.0001706423128592  0.8723266857399573
  0.8278370358884138  0.2500699377431368  0.7192353733889312
  0.0029621248198177  0.3757088063460534  0.8725418704275903
  0.9972671940990381  0.3757384665582829  0.6279535590503780
  0.8367463204944241  0.2501452610778460  0.9471111220070008
  0.1640076003263220  0.2500981946563859  0.5535904071102519
  0.3276082895349907  0.6247874851067591  0.7192410029281213
  0.3266510152458548  0.3797546028571970  0.2179172368588603
  0.5107345603783912  0.2501210821208938  0.3771378762050198
  0.4968875875153296  0.2501626442419504  0.1288061010889324
  0.3356952344887859  0.3803434967583992  0.4478674918107556
  0.6638304079781817  0.3755977998356216  0.0529155674257751
  0.1677056615365045  0.2501444968067471  0.2784869237345360
  0.8279026466930461  0.2500998855696178  0.2191346937182830
  0.0029006029985041  0.3759281251826572  0.3728468443460163
  0.9963149702892721  0.3760842763480271  0.1273311327034553
  0.8365883673492500  0.2501424640796242  0.4471169163877594
  0.1639205304985742  0.2501032352353860  0.0533132173543304
  0.6726026229371624  0.1248292454912846  0.7810892251902782
  0.3279500730626189  0.1246178277573042  0.7194530855371535
  0.6657764443919524  0.3766557312152316  0.5541157612134957
  0.6725112313175400  0.6248137883362885  0.7808211038938729
  0.1635215499963725  0.7500978098336768  0.0526821287058980
  0.8366175241053304  0.7501450991499177  0.4470888127715638
  0.9970822161446956  0.8755688411577444  0.1274305480981859
  0.0028235938063041  0.8757741274986139  0.3722394824486803
  0.8277952444797873  0.7500881787738125  0.2189296316969372
  0.1721418151250690  0.7501207647059931  0.2806725567563809
  0.6642401567816082  0.8757339994468308  0.0527393165221041
  0.3358099182132066  0.8747240171946018  0.4475318659861217
  0.4973130948756409  0.7501801440084989  0.1275841073342339
  0.5029076744382383  0.7501771016905548  0.3722269637900468
  0.3276407515987197  0.8750218666707641  0.2192510269241102
  0.6727183014861329  0.8752191726636956  0.2805657123902529
  0.1633951795912441  0.7501231626090265  0.5526589997456570
  0.8363657973261160  0.7501352276859700  0.9470073072146044
  0.9971541664931530  0.8757620187708477  0.6276195594221401
  0.0027816911549122  0.8756225468122645  0.8720102816041480
  0.8276864113540252  0.7500698324010533  0.7189988134666279
  0.1723772362113122  0.7501119301315435  0.7807949980562490
  0.6643933907600382  0.8755346712745851  0.5528749816509931
  0.3359667516777642  0.8757668122888917  0.9471344261070734
  0.4975114629649159  0.7501998021762384  0.6277731090582409
  0.5028185513648423  0.7502062601227234  0.8722678296027875
  0.3275828303539096  0.8754063401312744  0.7192545490324646
  0.6725345777022118  0.8754217100754194  0.7808108387721225

  0.00000000E+00  0.00000000E+00  0.00000000E+00
  0.00000000E+00  0.00000000E+00  0.00000000E+00
  0.00000000E+00  0.00000000E+00  0.00000000E+00
  0.00000000E+00  0.00000000E+00  0.00000000E+00
  0.00000000E+00  0.00000000E+00  0.00000000E+00
  0.00000000E+00  0.00000000E+00  0.00000000E+00
  0.00000000E+00  0.00000000E+00  0.00000000E+00
  0.00000000E+00  0.00000000E+00  0.00000000E+00
  0.00000000E+00  0.00000000E+00  0.00000000E+00
  0.00000000E+00  0.00000000E+00  0.00000000E+00
  0.00000000E+00  0.00000000E+00  0.00000000E+00
  0.00000000E+00  0.00000000E+00  0.00000000E+00
  0.00000000E+00  0.00000000E+00  0.00000000E+00
  0.00000000E+00  0.00000000E+00  0.00000000E+00
  0.00000000E+00  0.00000000E+00  0.00000000E+00
  0.00000000E+00  0.00000000E+00  0.00000000E+00
  0.00000000E+00  0.00000000E+00  0.00000000E+00
  0.00000000E+00  0.00000000E+00  0.00000000E+00
  0.00000000E+00  0.00000000E+00  0.00000000E+00
  0.00000000E+00  0.00000000E+00  0.00000000E+00
  0.00000000E+00  0.00000000E+00  0.00000000E+00
  0.00000000E+00  0.00000000E+00  0.00000000E+00
  0.00000000E+00  0.00000000E+00  0.00000000E+00
  0.00000000E+00  0.00000000E+00  0.00000000E+00
  0.00000000E+00  0.00000000E+00  0.00000000E+00
  0.00000000E+00  0.00000000E+00  0.00000000E+00
  0.00000000E+00  0.00000000E+00  0.00000000E+00
  0.00000000E+00  0.00000000E+00  0.00000000E+00
  0.00000000E+00  0.00000000E+00  0.00000000E+00
  0.00000000E+00  0.00000000E+00  0.00000000E+00
  0.00000000E+00  0.00000000E+00  0.00000000E+00
  0.00000000E+00  0.00000000E+00  0.00000000E+00
  0.00000000E+00  0.00000000E+00  0.00000000E+00
  0.00000000E+00  0.00000000E+00  0.00000000E+00
  0.00000000E+00  0.00000000E+00  0.00000000E+00
  0.00000000E+00  0.00000000E+00  0.00000000E+00
  0.00000000E+00  0.00000000E+00  0.00000000E+00
  0.00000000E+00  0.00000000E+00  0.00000000E+00
  0.00000000E+00  0.00000000E+00  0.00000000E+00
  0.00000000E+00  0.00000000E+00  0.00000000E+00
  0.00000000E+00  0.00000000E+00  0.00000000E+00
  0.00000000E+00  0.00000000E+00  0.00000000E+00
  0.00000000E+00  0.00000000E+00  0.00000000E+00
  0.00000000E+00  0.00000000E+00  0.00000000E+00
  0.00000000E+00  0.00000000E+00  0.00000000E+00
  0.00000000E+00  0.00000000E+00  0.00000000E+00
  0.00000000E+00  0.00000000E+00  0.00000000E+00
  0.00000000E+00  0.00000000E+00  0.00000000E+00
  0.00000000E+00  0.00000000E+00  0.00000000E+00
  0.00000000E+00  0.00000000E+00  0.00000000E+00
  0.00000000E+00  0.00000000E+00  0.00000000E+00
  0.00000000E+00  0.00000000E+00  0.00000000E+00
  0.00000000E+00  0.00000000E+00  0.00000000E+00
  0.00000000E+00  0.00000000E+00  0.00000000E+00
  0.00000000E+00  0.00000000E+00  0.00000000E+00
  0.00000000E+00  0.00000000E+00  0.00000000E+00
  0.00000000E+00  0.00000000E+00  0.00000000E+00
  0.00000000E+00  0.00000000E+00  0.00000000E+00
  0.00000000E+00  0.00000000E+00  0.00000000E+00
  0.00000000E+00  0.00000000E+00  0.00000000E+00
  0.00000000E+00  0.00000000E+00  0.00000000E+00
  0.00000000E+00  0.00000000E+00  0.00000000E+00
  0.00000000E+00  0.00000000E+00  0.00000000E+00
  0.00000000E+00  0.00000000E+00  0.00000000E+00
  0.00000000E+00  0.00000000E+00  0.00000000E+00
  0.00000000E+00  0.00000000E+00  0.00000000E+00
  0.00000000E+00  0.00000000E+00  0.00000000E+00
  0.00000000E+00  0.00000000E+00  0.00000000E+00
  0.00000000E+00  0.00000000E+00  0.00000000E+00
  0.00000000E+00  0.00000000E+00  0.00000000E+00
  0.00000000E+00  0.00000000E+00  0.00000000E+00
  0.00000000E+00  0.00000000E+00  0.00000000E+00
  0.00000000E+00  0.00000000E+00  0.00000000E+00
  0.00000000E+00  0.00000000E+00  0.00000000E+00
  0.00000000E+00  0.00000000E+00  0.00000000E+00
  0.00000000E+00  0.00000000E+00  0.00000000E+00
  0.00000000E+00  0.00000000E+00  0.00000000E+00
  0.00000000E+00  0.00000000E+00  0.00000000E+00
  0.00000000E+00  0.00000000E+00  0.00000000E+00
  0.00000000E+00  0.00000000E+00  0.00000000E+00
  0.00000000E+00  0.00000000E+00  0.00000000E+00
  0.00000000E+00  0.00000000E+00  0.00000000E+00
  0.00000000E+00  0.00000000E+00  0.00000000E+00
  0.00000000E+00  0.00000000E+00  0.00000000E+00
  0.00000000E+00  0.00000000E+00  0.00000000E+00
  0.00000000E+00  0.00000000E+00  0.00000000E+00
  0.00000000E+00  0.00000000E+00  0.00000000E+00
  0.00000000E+00  0.00000000E+00  0.00000000E+00
  0.00000000E+00  0.00000000E+00  0.00000000E+00
  0.00000000E+00  0.00000000E+00  0.00000000E+00
  0.00000000E+00  0.00000000E+00  0.00000000E+00
  0.00000000E+00  0.00000000E+00  0.00000000E+00
  0.00000000E+00  0.00000000E+00  0.00000000E+00
  0.00000000E+00  0.00000000E+00  0.00000000E+00
  0.00000000E+00  0.00000000E+00  0.00000000E+00
  0.00000000E+00  0.00000000E+00  0.00000000E+00
  0.00000000E+00  0.00000000E+00  0.00000000E+00
  0.00000000E+00  0.00000000E+00  0.00000000E+00
  0.00000000E+00  0.00000000E+00  0.00000000E+00
  0.00000000E+00  0.00000000E+00  0.00000000E+00
  0.00000000E+00  0.00000000E+00  0.00000000E+00
  0.00000000E+00  0.00000000E+00  0.00000000E+00
  0.00000000E+00  0.00000000E+00  0.00000000E+00
  0.00000000E+00  0.00000000E+00  0.00000000E+00
  0.00000000E+00  0.00000000E+00  0.00000000E+00
  0.00000000E+00  0.00000000E+00  0.00000000E+00
  0.00000000E+00  0.00000000E+00  0.00000000E+00
  0.00000000E+00  0.00000000E+00  0.00000000E+00
  0.00000000E+00  0.00000000E+00  0.00000000E+00
  0.00000000E+00  0.00000000E+00  0.00000000E+00
  0.00000000E+00  0.00000000E+00  0.00000000E+00
  0.00000000E+00  0.00000000E+00  0.00000000E+00
  0.00000000E+00  0.00000000E+00  0.00000000E+00
  0.00000000E+00  0.00000000E+00  0.00000000E+00
  0.00000000E+00  0.00000000E+00  0.00000000E+00
  0.00000000E+00  0.00000000E+00  0.00000000E+00
  0.00000000E+00  0.00000000E+00  0.00000000E+00
  0.00000000E+00  0.00000000E+00  0.00000000E+00
  0.00000000E+00  0.00000000E+00  0.00000000E+00
  0.00000000E+00  0.00000000E+00  0.00000000E+00
  0.00000000E+00  0.00000000E+00  0.00000000E+00
  0.00000000E+00  0.00000000E+00  0.00000000E+00
  0.00000000E+00  0.00000000E+00  0.00000000E+00
  0.00000000E+00  0.00000000E+00  0.00000000E+00
  0.00000000E+00  0.00000000E+00  0.00000000E+00
  0.00000000E+00  0.00000000E+00  0.00000000E+00
  0.00000000E+00  0.00000000E+00  0.00000000E+00
  0.00000000E+00  0.00000000E+00  0.00000000E+00
  0.00000000E+00  0.00000000E+00  0.00000000E+00
  0.00000000E+00  0.00000000E+00  0.00000000E+00
  0.00000000E+00  0.00000000E+00  0.00000000E+00
  0.00000000E+00  0.00000000E+00  0.00000000E+00
  0.00000000E+00  0.00000000E+00  0.00000000E+00
  0.00000000E+00  0.00000000E+00  0.00000000E+00
  0.00000000E+00  0.00000000E+00  0.00000000E+00
  0.00000000E+00  0.00000000E+00  0.00000000E+00
  0.00000000E+00  0.00000000E+00  0.00000000E+00
  0.00000000E+00  0.00000000E+00  0.00000000E+00
  0.00000000E+00  0.00000000E+00  0.00000000E+00
  0.00000000E+00  0.00000000E+00  0.00000000E+00
  0.00000000E+00  0.00000000E+00  0.00000000E+00
  0.00000000E+00  0.00000000E+00  0.00000000E+00
  0.00000000E+00  0.00000000E+00  0.00000000E+00
  0.00000000E+00  0.00000000E+00  0.00000000E+00
  0.00000000E+00  0.00000000E+00  0.00000000E+00
  0.00000000E+00  0.00000000E+00  0.00000000E+00
  0.00000000E+00  0.00000000E+00  0.00000000E+00
  0.00000000E+00  0.00000000E+00  0.00000000E+00
  0.00000000E+00  0.00000000E+00  0.00000000E+00
  0.00000000E+00  0.00000000E+00  0.00000000E+00
  0.00000000E+00  0.00000000E+00  0.00000000E+00
  0.00000000E+00  0.00000000E+00  0.00000000E+00
  0.00000000E+00  0.00000000E+00  0.00000000E+00
  0.00000000E+00  0.00000000E+00  0.00000000E+00
  0.00000000E+00  0.00000000E+00  0.00000000E+00
  0.00000000E+00  0.00000000E+00  0.00000000E+00
  0.00000000E+00  0.00000000E+00  0.00000000E+00
  0.00000000E+00  0.00000000E+00  0.00000000E+00
  0.00000000E+00  0.00000000E+00  0.00000000E+00
  0.00000000E+00  0.00000000E+00  0.00000000E+00
