Ga Cr  O                                
   1.00000000000000     
    11.8609006217508721    0.0000000000000000   -2.9126240731473736
     0.0000000000000000   12.1318613217336004    0.0000000000000000
     0.0000000000000000    0.0000000000000000   11.5777857733786895
   Ga   Cr   O 
    63     1    96
Direct
  0.0896538821133232  0.9999434137701912  0.3963151903820629
  0.4107014528001233  0.6250928570583850  0.6042854731621671
  0.5892030773605789  0.6251180214794541  0.8959038762547559
  0.1597482019938608  0.6249147967467641  0.6556070938727219
  0.8404616065852206  0.6249319295680099  0.8442588291967260
  0.9101613920573247  0.5001221967317855  0.6037168440624513
  0.0900944157993415  0.5001953696410690  0.8959345929811654
  0.8407744135170545  0.3754907157625196  0.8441640482287825
  0.9115166256817370  0.2500668358149316  0.6038650173312751
  0.0887316562522670  0.2500625766223516  0.8961865003653362
  0.8402442346217579  0.6249332068539768  0.3443445079813407
  0.6595378305933191 -0.0000074323817069  0.6563135999653247
  0.1594335123724127  0.6253933077208813  0.1551246471188458
  0.0890538102001777  0.2501041446026778  0.3974902857724480
  0.9107107533768818  0.2500959217753885  0.1034865187434001
  0.8407500819548385  0.3752229443917279  0.3440961565024545
  0.1585452163255593  0.3762226147815353  0.1545144111707396
  0.5904154028351688  0.3769313129769720  0.3960291444959792
  0.4114681036128559  0.3751278473882860  0.1032403793140496
  0.6602191055512562  0.2501498762131475  0.1548503879061363
  0.4109490281209705  0.6252217285517618  0.1035941170430818
  0.3403097700903320  0.5015792997155125  0.3425044711058869
  0.5890091573606205  0.6252637083147650  0.3960084986408638
  0.3405647461680257  0.9997230362485756  0.8440466670612629
  0.4117614200510797  0.1258246450083521  0.6064582867931584
  0.5893832505294735  0.1249871328997603  0.8960246885826220
  0.9098724073714380  0.0001199919116767  0.1037952273608960
  0.8407555295620622  0.1249962193565877  0.3441190622852816
  0.1585287610098604  0.1239459143260334  0.1544997470102031
  0.5903847525228690  0.1233718374276401  0.3959725551300562
  0.4115722130660732  0.1251752254640690  0.1032466856802038
  0.3402900961591429  0.9984955210283714  0.3422513462733775
  0.6595268422325605  0.9997959234340633  0.1557690340446080
  0.0896819810984275  0.5002274917254934  0.3962912803868904
  0.6595086566343431  0.5004480901065883  0.1557679488410639
  0.6608111123167620  0.2500971606366295  0.6567136627177504
  0.9098956283920296  0.5000390837958035  0.1038011460495006
  0.4116747382810482  0.3744582176744440  0.6062912556923536
  0.5894516213033084  0.3753550701666261  0.8960275119758538
  0.1592961686011328  0.3754470510705806  0.6562618311086375
  0.6595431715227381  0.5001715154769539  0.6563199421986536
  0.3405861681431573  0.5004979171700856  0.8440383923645437
  0.0900760145582596  0.9999127110446002  0.8959479488557393
  0.9101320680390326  0.9999932625851750  0.6037094574969778
  0.8407642178721096  0.1246877094343598  0.8441835964923838
  0.1592554155822097  0.1247179058106575  0.6562615244368838
  0.3401126545661400  0.2501445531892235  0.8448402097510983
  0.0884989267765060  0.7500859576563336  0.3961060294783057
  0.9114259108227813  0.7500719684570717  0.1040362826005993
  0.8402538719535566  0.8752715635039017  0.3443231968916595
  0.1593674948504306  0.8747306626175295  0.1551175594647942
  0.5890652792459481  0.8750228462417740  0.3960295370345704
  0.4108959920520675  0.8750700303605019  0.1035546046506844
  0.3400316817177550  0.7500844727775198  0.3451157700657731
  0.6598260463108706  0.7501385859574615  0.1550929644495588
  0.0886133983698172  0.7500553103142195  0.8955955960921389
  0.9116246021795193  0.7500593738919684  0.6039738531226764
  0.8404636381973016  0.8752323313618480  0.8442353381881998
  0.1597244305270337  0.8752459587266204  0.6556293940754093
  0.5892784321920537  0.8752297013034629  0.8959159263394773
  0.4106047375149712  0.8751426499099508  0.6042491826744184
  0.3402437064418748  0.7501259741932524  0.8446563949157379
  0.6598913316400732  0.7500895881545605  0.6552594763319383
  0.3428783004889354  0.2500039494564596  0.3436914315361244
  0.6722120998448863  0.3755213132153780  0.7802401922142801
  0.3275624959797674  0.3751614816187309  0.7194108275690769
  0.5026819858258953  0.2502100759485331  0.8722172156304718
  0.1653692613918204  0.4998998156476858  0.0531302185126174
  0.4969438356107117  0.4999709715930782  0.1286959526167110
  0.9975651532944261  0.6241607867135409  0.1280650517714441
  0.5026891093352207  0.5000493890789819  0.8718123480128144
  0.4964492917585402  0.4995541183803060  0.6261673786192831
  0.3358094296298870  0.6244620538274720  0.9471537278066930
  0.6636926685301788  0.6240901097216212  0.5526840051660241
  0.1726514243571942  0.4999158445511230  0.7803466339116116
  0.8274355512724068  0.4997192503094833  0.7192466811566743
  0.0029296149655987  0.6242874588126558  0.8724945434050025
  0.9975011941616512  0.6242709631982882  0.6275276368689620
  0.8356458008681502  0.4999456935836834  0.9470847818351606
  0.1655914504692694  0.4995759469121863  0.5525688353076850
  0.6720437343365301  0.6243170798714283  0.2807867703773106
  0.3275352345533493  0.6241236479051846  0.2191042017329412
  0.5017770411634873  0.4997940765722123  0.3725124351800346
  0.4981341251107028  0.2501530867865271  0.6270885519447879
  0.3357931822204137  0.6235801027882146  0.4471754019878331
  0.6638262221411083  0.6244145217489403  0.0527862246891210
  0.1738246836259685  0.4984863633384507  0.2811617646041139
  0.8273348798197272  0.4996159868321187  0.2195046949191630
  0.0028226654550400  0.6243064715872764  0.3718707680275773
  0.8356156502659176  0.4997395374910122  0.4469030626311989
  0.3356337550826184  0.3757226863547247  0.9473421047576951
  0.6717652761588844  0.3747574828501142  0.2808894572979281
  0.1725007954653407  0.2501050214897905  0.7812506060032511
  0.1726261119702201  0.0002705651489058  0.7803512918171923
  0.8274257497336674  0.0003963387981522  0.7192488371033812
  0.0031811026433836  0.1243709558375405  0.8728235779519419
  0.9973220470268069  0.1243840261897582  0.6274605893110433
  0.8356206394277110  0.0002219725267451  0.9470705990500399
  0.1656221630919207  0.0005719779031214  0.5525715121480355
  0.6717591269877798  0.1255072520173666  0.2808850091272960
  0.3292691856750057  0.1278087134874407  0.2218230740308485
  0.6628775370128418  0.1253091266188675  0.5522470660093226
  0.5017539417887501  0.0004657067572927  0.3726037920670775
  0.3383468764837481  0.1321794807349169  0.4457884530541565
  0.6636705832556830  0.1244540120717410  0.0529579160148635
  0.1738442113473519  0.0017560944321755  0.2812329867334909
  0.8273378599581004  0.0005536125232979  0.2195117199071621
  0.0034827138219281  0.1248711825485131  0.3712754522242470
  0.9974748599540798  0.1247618672740659  0.1285022864125071
  0.8356064512851886  0.0004470060774341  0.4468953934137474
  0.1653176169669733  0.0002175387238321  0.0531544708679594
  0.4969624814063202  0.0002624041119813  0.1287223631084363
  0.3356951829768601  0.1245443959788923  0.9473473883377588
  0.4963970745330806  0.0006639715498263  0.6260894475175602
  0.5026792022011897  0.0002272234352079  0.8718139076873375
  0.8278233059722832  0.2500632109440553  0.7189947115174524
  0.0031874222401637  0.3757551627193623  0.8728015513634377
  0.9973462947326021  0.3757305592396977  0.6274632885750299
  0.8362067190491744  0.2501256482790861  0.9467567993969295
  0.1646072912383419  0.2500621734554113  0.5534493039864881
  0.3276851166212696  0.6245511263224179  0.7193706713855410
  0.3292297327777125  0.3722078883750795  0.2218448849603065
  0.4982751821837485  0.2502048812320799  0.3700483923804600
  0.4975456900975111  0.2502026417430742  0.1292585883066613
  0.3382780289908620  0.3684944261125283  0.4458242554219211
  0.6637229628378687  0.3758167779268289  0.0529559939990142
  0.1788255792579897  0.2501211250979335  0.2845757477125963
  0.8274171527055306  0.2501136200770190  0.2188903323747013
  0.0034822484705670  0.3753204291618706  0.3712698001350126
  0.9975030421167893  0.3754055508102373  0.1285008949665278
  0.8367979514834445  0.2501335349290890  0.4468597800912952
  0.1634997906184548  0.2500820531337065  0.0541521891980282
  0.6721780425798277  0.1246960184584743  0.7802349989890758
  0.3275479195293702  0.1249783710481826  0.7194207707811694
  0.6629453243414309  0.3748696288459396  0.5522771583999146
  0.6721599262534818  0.6244211985991310  0.7803425929478329
  0.1638450833674938  0.7500857916593329  0.0527057061540997
  0.8364380634787785  0.7501367715415943  0.4470765823598776
  0.9975383833135726  0.8760028829870405  0.1280828204684784
  0.0028256217709917  0.8758666495506082  0.3718850827028988
  0.8274674329460707  0.7501080282691904  0.2190247551919479
  0.1728106341406251  0.7501407365243511  0.2810670303758485
  0.6639097078209131  0.8758525668288718  0.0527855160314704
  0.3357539475626732  0.8766890382407351  0.4471332811948882
  0.4973064287237706  0.7501951831300061  0.1279487706592642
  0.5021212856229311  0.7501810226590289  0.3723126761832262
  0.3275124881688939  0.8760543680294230  0.2190795289692652
  0.6720462638902786  0.8759754475350615  0.2807739159644239
  0.1640116024540179  0.7501061454453647  0.5527753797399578
  0.8364730328944719  0.7501195201429363  0.9470989663903228
  0.9974875349877645  0.8758607788543104  0.6275339452860617
  0.0029279532294528  0.8758260933827036  0.8725025637194752
  0.8276183414489628  0.7500601696383917  0.7189728997564405
  0.1725113353810196  0.7501128285005220  0.7807764176980474
  0.6637357186469203  0.8760873021009420  0.5526946125772068
  0.3357319935917260  0.8758018352658424  0.9471451929026985
  0.4971117726757609  0.7501721626514704  0.6271822737711599
  0.5026697065152675  0.7502205988638191  0.8722823668104014
  0.3276687048578970  0.8756361888042480  0.7193859245238234
  0.6721645012089889  0.8758160421089023  0.7803136898023508
 
  0.00000000E+00  0.00000000E+00  0.00000000E+00
  0.00000000E+00  0.00000000E+00  0.00000000E+00
  0.00000000E+00  0.00000000E+00  0.00000000E+00
  0.00000000E+00  0.00000000E+00  0.00000000E+00
  0.00000000E+00  0.00000000E+00  0.00000000E+00
  0.00000000E+00  0.00000000E+00  0.00000000E+00
  0.00000000E+00  0.00000000E+00  0.00000000E+00
  0.00000000E+00  0.00000000E+00  0.00000000E+00
  0.00000000E+00  0.00000000E+00  0.00000000E+00
  0.00000000E+00  0.00000000E+00  0.00000000E+00
  0.00000000E+00  0.00000000E+00  0.00000000E+00
  0.00000000E+00  0.00000000E+00  0.00000000E+00
  0.00000000E+00  0.00000000E+00  0.00000000E+00
  0.00000000E+00  0.00000000E+00  0.00000000E+00
  0.00000000E+00  0.00000000E+00  0.00000000E+00
  0.00000000E+00  0.00000000E+00  0.00000000E+00
  0.00000000E+00  0.00000000E+00  0.00000000E+00
  0.00000000E+00  0.00000000E+00  0.00000000E+00
  0.00000000E+00  0.00000000E+00  0.00000000E+00
  0.00000000E+00  0.00000000E+00  0.00000000E+00
  0.00000000E+00  0.00000000E+00  0.00000000E+00
  0.00000000E+00  0.00000000E+00  0.00000000E+00
  0.00000000E+00  0.00000000E+00  0.00000000E+00
  0.00000000E+00  0.00000000E+00  0.00000000E+00
  0.00000000E+00  0.00000000E+00  0.00000000E+00
  0.00000000E+00  0.00000000E+00  0.00000000E+00
  0.00000000E+00  0.00000000E+00  0.00000000E+00
  0.00000000E+00  0.00000000E+00  0.00000000E+00
  0.00000000E+00  0.00000000E+00  0.00000000E+00
  0.00000000E+00  0.00000000E+00  0.00000000E+00
  0.00000000E+00  0.00000000E+00  0.00000000E+00
  0.00000000E+00  0.00000000E+00  0.00000000E+00
  0.00000000E+00  0.00000000E+00  0.00000000E+00
  0.00000000E+00  0.00000000E+00  0.00000000E+00
  0.00000000E+00  0.00000000E+00  0.00000000E+00
  0.00000000E+00  0.00000000E+00  0.00000000E+00
  0.00000000E+00  0.00000000E+00  0.00000000E+00
  0.00000000E+00  0.00000000E+00  0.00000000E+00
  0.00000000E+00  0.00000000E+00  0.00000000E+00
  0.00000000E+00  0.00000000E+00  0.00000000E+00
  0.00000000E+00  0.00000000E+00  0.00000000E+00
  0.00000000E+00  0.00000000E+00  0.00000000E+00
  0.00000000E+00  0.00000000E+00  0.00000000E+00
  0.00000000E+00  0.00000000E+00  0.00000000E+00
  0.00000000E+00  0.00000000E+00  0.00000000E+00
  0.00000000E+00  0.00000000E+00  0.00000000E+00
  0.00000000E+00  0.00000000E+00  0.00000000E+00
  0.00000000E+00  0.00000000E+00  0.00000000E+00
  0.00000000E+00  0.00000000E+00  0.00000000E+00
  0.00000000E+00  0.00000000E+00  0.00000000E+00
  0.00000000E+00  0.00000000E+00  0.00000000E+00
  0.00000000E+00  0.00000000E+00  0.00000000E+00
  0.00000000E+00  0.00000000E+00  0.00000000E+00
  0.00000000E+00  0.00000000E+00  0.00000000E+00
  0.00000000E+00  0.00000000E+00  0.00000000E+00
  0.00000000E+00  0.00000000E+00  0.00000000E+00
  0.00000000E+00  0.00000000E+00  0.00000000E+00
  0.00000000E+00  0.00000000E+00  0.00000000E+00
  0.00000000E+00  0.00000000E+00  0.00000000E+00
  0.00000000E+00  0.00000000E+00  0.00000000E+00
  0.00000000E+00  0.00000000E+00  0.00000000E+00
  0.00000000E+00  0.00000000E+00  0.00000000E+00
  0.00000000E+00  0.00000000E+00  0.00000000E+00
  0.00000000E+00  0.00000000E+00  0.00000000E+00
  0.00000000E+00  0.00000000E+00  0.00000000E+00
  0.00000000E+00  0.00000000E+00  0.00000000E+00
  0.00000000E+00  0.00000000E+00  0.00000000E+00
  0.00000000E+00  0.00000000E+00  0.00000000E+00
  0.00000000E+00  0.00000000E+00  0.00000000E+00
  0.00000000E+00  0.00000000E+00  0.00000000E+00
  0.00000000E+00  0.00000000E+00  0.00000000E+00
  0.00000000E+00  0.00000000E+00  0.00000000E+00
  0.00000000E+00  0.00000000E+00  0.00000000E+00
  0.00000000E+00  0.00000000E+00  0.00000000E+00
  0.00000000E+00  0.00000000E+00  0.00000000E+00
  0.00000000E+00  0.00000000E+00  0.00000000E+00
  0.00000000E+00  0.00000000E+00  0.00000000E+00
  0.00000000E+00  0.00000000E+00  0.00000000E+00
  0.00000000E+00  0.00000000E+00  0.00000000E+00
  0.00000000E+00  0.00000000E+00  0.00000000E+00
  0.00000000E+00  0.00000000E+00  0.00000000E+00
  0.00000000E+00  0.00000000E+00  0.00000000E+00
  0.00000000E+00  0.00000000E+00  0.00000000E+00
  0.00000000E+00  0.00000000E+00  0.00000000E+00
  0.00000000E+00  0.00000000E+00  0.00000000E+00
  0.00000000E+00  0.00000000E+00  0.00000000E+00
  0.00000000E+00  0.00000000E+00  0.00000000E+00
  0.00000000E+00  0.00000000E+00  0.00000000E+00
  0.00000000E+00  0.00000000E+00  0.00000000E+00
  0.00000000E+00  0.00000000E+00  0.00000000E+00
  0.00000000E+00  0.00000000E+00  0.00000000E+00
  0.00000000E+00  0.00000000E+00  0.00000000E+00
  0.00000000E+00  0.00000000E+00  0.00000000E+00
  0.00000000E+00  0.00000000E+00  0.00000000E+00
  0.00000000E+00  0.00000000E+00  0.00000000E+00
  0.00000000E+00  0.00000000E+00  0.00000000E+00
  0.00000000E+00  0.00000000E+00  0.00000000E+00
  0.00000000E+00  0.00000000E+00  0.00000000E+00
  0.00000000E+00  0.00000000E+00  0.00000000E+00
  0.00000000E+00  0.00000000E+00  0.00000000E+00
  0.00000000E+00  0.00000000E+00  0.00000000E+00
  0.00000000E+00  0.00000000E+00  0.00000000E+00
  0.00000000E+00  0.00000000E+00  0.00000000E+00
  0.00000000E+00  0.00000000E+00  0.00000000E+00
  0.00000000E+00  0.00000000E+00  0.00000000E+00
  0.00000000E+00  0.00000000E+00  0.00000000E+00
  0.00000000E+00  0.00000000E+00  0.00000000E+00
  0.00000000E+00  0.00000000E+00  0.00000000E+00
  0.00000000E+00  0.00000000E+00  0.00000000E+00
  0.00000000E+00  0.00000000E+00  0.00000000E+00
  0.00000000E+00  0.00000000E+00  0.00000000E+00
  0.00000000E+00  0.00000000E+00  0.00000000E+00
  0.00000000E+00  0.00000000E+00  0.00000000E+00
  0.00000000E+00  0.00000000E+00  0.00000000E+00
  0.00000000E+00  0.00000000E+00  0.00000000E+00
  0.00000000E+00  0.00000000E+00  0.00000000E+00
  0.00000000E+00  0.00000000E+00  0.00000000E+00
  0.00000000E+00  0.00000000E+00  0.00000000E+00
  0.00000000E+00  0.00000000E+00  0.00000000E+00
  0.00000000E+00  0.00000000E+00  0.00000000E+00
  0.00000000E+00  0.00000000E+00  0.00000000E+00
  0.00000000E+00  0.00000000E+00  0.00000000E+00
  0.00000000E+00  0.00000000E+00  0.00000000E+00
  0.00000000E+00  0.00000000E+00  0.00000000E+00
  0.00000000E+00  0.00000000E+00  0.00000000E+00
  0.00000000E+00  0.00000000E+00  0.00000000E+00
  0.00000000E+00  0.00000000E+00  0.00000000E+00
  0.00000000E+00  0.00000000E+00  0.00000000E+00
  0.00000000E+00  0.00000000E+00  0.00000000E+00
  0.00000000E+00  0.00000000E+00  0.00000000E+00
  0.00000000E+00  0.00000000E+00  0.00000000E+00
  0.00000000E+00  0.00000000E+00  0.00000000E+00
  0.00000000E+00  0.00000000E+00  0.00000000E+00
  0.00000000E+00  0.00000000E+00  0.00000000E+00
  0.00000000E+00  0.00000000E+00  0.00000000E+00
  0.00000000E+00  0.00000000E+00  0.00000000E+00
  0.00000000E+00  0.00000000E+00  0.00000000E+00
  0.00000000E+00  0.00000000E+00  0.00000000E+00
  0.00000000E+00  0.00000000E+00  0.00000000E+00
  0.00000000E+00  0.00000000E+00  0.00000000E+00
  0.00000000E+00  0.00000000E+00  0.00000000E+00
  0.00000000E+00  0.00000000E+00  0.00000000E+00
  0.00000000E+00  0.00000000E+00  0.00000000E+00
  0.00000000E+00  0.00000000E+00  0.00000000E+00
  0.00000000E+00  0.00000000E+00  0.00000000E+00
  0.00000000E+00  0.00000000E+00  0.00000000E+00
  0.00000000E+00  0.00000000E+00  0.00000000E+00
  0.00000000E+00  0.00000000E+00  0.00000000E+00
  0.00000000E+00  0.00000000E+00  0.00000000E+00
  0.00000000E+00  0.00000000E+00  0.00000000E+00
  0.00000000E+00  0.00000000E+00  0.00000000E+00
  0.00000000E+00  0.00000000E+00  0.00000000E+00
  0.00000000E+00  0.00000000E+00  0.00000000E+00
  0.00000000E+00  0.00000000E+00  0.00000000E+00
  0.00000000E+00  0.00000000E+00  0.00000000E+00
  0.00000000E+00  0.00000000E+00  0.00000000E+00
  0.00000000E+00  0.00000000E+00  0.00000000E+00
  0.00000000E+00  0.00000000E+00  0.00000000E+00
  0.00000000E+00  0.00000000E+00  0.00000000E+00
  0.00000000E+00  0.00000000E+00  0.00000000E+00
