Ga Ir  O                                
   1.00000000000000     
    11.8609006217508721    0.0000000000000000   -2.9126240731473736
     0.0000000000000000   12.1318613217336004    0.0000000000000000
     0.0000000000000000    0.0000000000000000   11.5777857733786895
   Ga   Ir   O 
    63     1    96
Direct
  0.0900315053504414  0.9997138493340332  0.3963466208545937
  0.4111379198165038  0.6253668423550384  0.6046546490486674
  0.5892137777110036  0.6251150783992667  0.8958727810780909
  0.1595931108751748  0.6250771452891081  0.6553198506592500
  0.8404729114832852  0.6250748129008910  0.8442012512189475
  0.9101634742202074  0.5000994140665761  0.6036841073718232
  0.0897458954709886  0.5004219540653366  0.8953438748618665
  0.8407913047183729  0.3754550608398617  0.8441524762079015
  0.9113981575438544  0.2500771687293757  0.6041571478466565
  0.0890755239363154  0.2501014264026269  0.8966763753553011
  0.8404642108062538  0.6250547456368584  0.3444065830038147
  0.6600114645670332  0.9995879861579460  0.6568070259440391
  0.1590610180390474  0.6257069485955166  0.1551867346960170
  0.0867508981991955  0.2501057849985756  0.3991865545818216
  0.9101545049006267  0.2500849582375685  0.1033735293895445
  0.8407328308531680  0.3754644959526703  0.3441125665512860
  0.1559640459902158  0.3779725813943163  0.1528740818128309
  0.5924619199726695  0.3782957621434770  0.3972516468519912
  0.4122742334688120  0.3757104726333110  0.1019118757895186
  0.6603444826123354  0.2501070789175807  0.1553012654836762
  0.4109904957727961  0.6253904176317397  0.1035879264487696
  0.3407599160527730  0.5043272298365682  0.3435941336733961
  0.5897320664056485  0.6256841059162874  0.3961118392397214
  0.3405672007808683  0.9995551362962476  0.8437563843740137
  0.4120821944820863  0.1249215833618825  0.6064363467101437
  0.5894222014623575  0.1249915020985971  0.8960039175786291
  0.9092405646923887  0.9995092036467803  0.1034403969226648
  0.8407385910151521  0.1247436979252134  0.3441304035687114
  0.1559809257861105  0.1222199523910328  0.1528685590430011
  0.5924187265248775  0.1219861784669238  0.3971716997485345
  0.4123336232473490  0.1244818875892091  0.1019299448925660
  0.3407445504127056  0.9958276993207448  0.3434419564019915
  0.6598994853837525  0.9995658340598410  0.1558325659422090
  0.0900451907195618  0.5004621089415100  0.3963516038476058
  0.6598829648226673  0.5006295067669350  0.1558537655607288
  0.6606608530104064  0.2501046419895095  0.6566094065175612
  0.9092508711965134  0.5006460761048142  0.1034457212874783
  0.4120202367301888  0.3753749013796263  0.6063889390006134
  0.5895110737074021  0.3753344616476844  0.8960274187407777
  0.1594931490301961  0.3756786709016393  0.6565809243542495
  0.6600187281217531  0.5006261374447004  0.6568300025246102
  0.3405816703761692  0.5006777466039198  0.8437491483345255
  0.0897173479123219  0.9997265242842269  0.8953417441425199
  0.9101539008660382  0.0000446030735540  0.6036815115785663
  0.8407905207382590  0.1247515205225271  0.8441749485179529
  0.1594791000112191  0.1245122192761704  0.6565642323923879
  0.3401117874080771  0.2501323238513410  0.8443872996101348
  0.0883724935705023  0.7501015429915702  0.3959102453863579
  0.9112505247029622  0.7500752335572906  0.1038256038162497
  0.8404671410765839  0.8751588112970828  0.3443867686656447
  0.1590224922401026  0.8744644512900075  0.1551695598905734
  0.5897869401927309  0.8745710596371978  0.3961135404622049
  0.4109385769483117  0.8748431394735384  0.1035516174315337
  0.3400956756465640  0.7501141047297860  0.3448615810115964
  0.6601012222698480  0.7501119842900078  0.1551200786175040
  0.0885772517579207  0.7500742444201678  0.8954272343395964
  0.9115874689439529  0.7500794975641784  0.6039956276177793
  0.8404741111747835  0.8751273518623067  0.8441797495120599
  0.1595787063491047  0.8751367829850821  0.6553469456068438
  0.5892681169736164  0.8752047452562143  0.8958793815876965
  0.4110510740334445  0.8749220089543531  0.6046278808449638
  0.3401750588486482  0.7501265753279375  0.8445585048900458
  0.6601660932709181  0.7501180703949868  0.6552571908425404
  0.3406074745142657  0.2500554248733501  0.3383498990051780
  0.6722946942081893  0.3752992017189049  0.7805397674067434
  0.3277948697071610  0.3753571172601743  0.7197243094164778
  0.5026773723188515  0.2502123665349476  0.8727036403617324
  0.1650087744755060  0.5005292554718946  0.0523871209900240
  0.4972320811888581  0.5003464849622038  0.1284337769316858
  0.9972279581345729  0.6243385089986330  0.1276016575333086
  0.5027889534330907  0.5000192344831276  0.8721818158424877
  0.4972597503652418  0.5002456626407120  0.6274280198875720
  0.3358558609892388  0.6244764743190130  0.9472366388677588
  0.6641883246025576  0.6243537673562375  0.5527234664269634
  0.1726293311076176  0.5000085121170051  0.7802876674039363
  0.8278207677662921  0.4998548575400779  0.7195868032026040
  0.0028318741424817  0.6244547395099741  0.8722337291504054
  0.9973388345109060  0.6242911488124701  0.6274605936245492
  0.8353799043151022  0.5000443562787540  0.9469432845612133
  0.1651916498218085  0.4997606892535879  0.5527149464847032
  0.6724660796021105  0.6246604452642452  0.2806102800041063
  0.3275890707290306  0.6246852714655798  0.2191772481179928
  0.5029016690372589  0.5004345065292264  0.3721376949384023
  0.4973128082308491  0.2501676020665323  0.6263164218172107
  0.3356486982593061  0.6251417821892787  0.4477945457197386
  0.6640735305135324  0.6244395030620716  0.0526531408742597
  0.1726175672571360  0.4995387641821324  0.2801488598987527
  0.8274542661611979  0.4998966184204419  0.2195129808829128
  0.0028072864501365  0.6243413757256886  0.3719359742589283
  0.8353085504629807  0.4998662461658412  0.4469879175357883
  0.3353558218251796  0.3757701045450870  0.9471063972322377
  0.6724202439232615  0.3751700838655717  0.2807053542201257
  0.1725668261520404  0.2501234375527703  0.7814721917797877
  0.1726142446749259  0.0001963919944324  0.7802803241152011
  0.8278172740576233  0.0003098794130787  0.7195865520890589
  0.0034077564832209  0.1244884956268519  0.8732063609200644
  0.9973450723579933  0.1244794201161251  0.6276103792306509
  0.8353704764543363  0.0001488801777048  0.9469282366682026
  0.1652002734475412  0.0004069875872408  0.5527061393271590
  0.6724312345122651  0.1250485230859959  0.2806903638879914
  0.3282323919132062  0.1230340216585846  0.2200619504866385
  0.6642994410426240  0.1246167624654607  0.5533566463639764
  0.5029031907577070  0.9997883775762115  0.3721180215457009
  0.3373266267128299  0.1228843910295333  0.4472525447515940
  0.6633648790340448  0.1245964384848381  0.0530505538670435
  0.1726047673492037  0.0006450116022570  0.2801575183029612
  0.8274657758607007  0.0002657281802662  0.2195103741017829
  0.0031576276001829  0.1242980545069942  0.3719003791844714
  0.9962452610710013  0.1243790416617741  0.1279403857191590
  0.8353080895924189  0.0003346073240289  0.4469888061623707
  0.1649711106974327  0.9996148455190795  0.0523762567733312
  0.4972559282696807  0.9998154172285432  0.1284151982953274
  0.3354174142894081  0.1244807882063108  0.9471072921065808
  0.4972316351869481  0.0000096008697531  0.6273634563244097
  0.5027726282832259  0.0002410441118703  0.8721791902346692
  0.8279879687888309  0.2500665317025601  0.7193138135678306
  0.0034025060801739  0.3756918978605803  0.8732055499691110
  0.9973461903799524  0.3756692026269093  0.6276110540805045
  0.8362852221909465  0.2501419276102899  0.9468018461526061
  0.1650660139743976  0.2500957610529655  0.5537149431912680
  0.3276569383335812  0.6246579480926937  0.7193504527190804
  0.3282556100449490  0.3770010266987142  0.2201534171150723
  0.5049022859938613  0.2501745545460832  0.3738436620482831
  0.4968548023088948  0.2501284684898860  0.1302982687038027
  0.3372518692818303  0.3774311404695867  0.4473220725251790
  0.6634122019529716  0.3756135800974658  0.0530728113025801
  0.1726453238270919  0.2500366742644580  0.2819877890197085
  0.8276292027147266  0.2500989320249957  0.2191004981576996
  0.0031516956637773  0.3758969420584798  0.3718850440184820
  0.9962574341165640  0.3757731500241614  0.1279796607640621
  0.8370550763366542  0.2501296836309539  0.4469643764983843
  0.1637107149726957  0.2501290620297709  0.0548434912789457
  0.6722583333258688  0.1249413327480165  0.7805437512780191
  0.3277946398692935  0.1248364098424950  0.7197023064319790
  0.6643715601649266  0.3755947889967967  0.5534105317041158
  0.6723948780714514  0.6245754031983387  0.7805715286424680
  0.1637808673484149  0.7501092176207831  0.0524415664517772
  0.8365045014323551  0.7501439707619795  0.4471050798538975
  0.9972080752117553  0.8758149677709059  0.1275975983513964
  0.0027995151287100  0.8758558109052950  0.3719375615252599
  0.8276809266479817  0.7500818907481982  0.2189886528166472
  0.1724193314959459  0.7501228608129944  0.2807086544094018
  0.6641380341516016  0.8757630417185730  0.0526484437032878
  0.3356106584247379  0.8751327706431083  0.4477623746585649
  0.4974546796907780  0.7501536742722514  0.1278958804737901
  0.5024282750436040  0.7501603333558834  0.3722103950465194
  0.3275727231964139  0.8754575223643721  0.2191563852950855
  0.6724729082483311  0.8755826792733741  0.2805856601924225
  0.1637524747233055  0.7501528057750332  0.5525275850513974
  0.8363727095073871  0.7501361582888899  0.9470931476504572
  0.9973306247823106  0.8758704275310667  0.6274613284388946
  0.0028252158294415  0.8756939478684549  0.8722078019866600
  0.8277290000869983  0.7500914502188931  0.7190235079908194
  0.1724619478751556  0.7501166037973188  0.7806341761424839
  0.6642333082576718  0.8758536550618787  0.5527149505288144
  0.3357918502673523  0.8757758698781866  0.9472224301101779
  0.4975835725140877  0.7501936956755881  0.6275342139852733
  0.5027107731884534  0.7502006391376682  0.8722350414143505
  0.3276457177089609  0.8755592118218865  0.7193683000205714
  0.6723965148679489  0.8756893313067770  0.7805420224879943
 
  0.00000000E+00  0.00000000E+00  0.00000000E+00
  0.00000000E+00  0.00000000E+00  0.00000000E+00
  0.00000000E+00  0.00000000E+00  0.00000000E+00
  0.00000000E+00  0.00000000E+00  0.00000000E+00
  0.00000000E+00  0.00000000E+00  0.00000000E+00
  0.00000000E+00  0.00000000E+00  0.00000000E+00
  0.00000000E+00  0.00000000E+00  0.00000000E+00
  0.00000000E+00  0.00000000E+00  0.00000000E+00
  0.00000000E+00  0.00000000E+00  0.00000000E+00
  0.00000000E+00  0.00000000E+00  0.00000000E+00
  0.00000000E+00  0.00000000E+00  0.00000000E+00
  0.00000000E+00  0.00000000E+00  0.00000000E+00
  0.00000000E+00  0.00000000E+00  0.00000000E+00
  0.00000000E+00  0.00000000E+00  0.00000000E+00
  0.00000000E+00  0.00000000E+00  0.00000000E+00
  0.00000000E+00  0.00000000E+00  0.00000000E+00
  0.00000000E+00  0.00000000E+00  0.00000000E+00
  0.00000000E+00  0.00000000E+00  0.00000000E+00
  0.00000000E+00  0.00000000E+00  0.00000000E+00
  0.00000000E+00  0.00000000E+00  0.00000000E+00
  0.00000000E+00  0.00000000E+00  0.00000000E+00
  0.00000000E+00  0.00000000E+00  0.00000000E+00
  0.00000000E+00  0.00000000E+00  0.00000000E+00
  0.00000000E+00  0.00000000E+00  0.00000000E+00
  0.00000000E+00  0.00000000E+00  0.00000000E+00
  0.00000000E+00  0.00000000E+00  0.00000000E+00
  0.00000000E+00  0.00000000E+00  0.00000000E+00
  0.00000000E+00  0.00000000E+00  0.00000000E+00
  0.00000000E+00  0.00000000E+00  0.00000000E+00
  0.00000000E+00  0.00000000E+00  0.00000000E+00
  0.00000000E+00  0.00000000E+00  0.00000000E+00
  0.00000000E+00  0.00000000E+00  0.00000000E+00
  0.00000000E+00  0.00000000E+00  0.00000000E+00
  0.00000000E+00  0.00000000E+00  0.00000000E+00
  0.00000000E+00  0.00000000E+00  0.00000000E+00
  0.00000000E+00  0.00000000E+00  0.00000000E+00
  0.00000000E+00  0.00000000E+00  0.00000000E+00
  0.00000000E+00  0.00000000E+00  0.00000000E+00
  0.00000000E+00  0.00000000E+00  0.00000000E+00
  0.00000000E+00  0.00000000E+00  0.00000000E+00
  0.00000000E+00  0.00000000E+00  0.00000000E+00
  0.00000000E+00  0.00000000E+00  0.00000000E+00
  0.00000000E+00  0.00000000E+00  0.00000000E+00
  0.00000000E+00  0.00000000E+00  0.00000000E+00
  0.00000000E+00  0.00000000E+00  0.00000000E+00
  0.00000000E+00  0.00000000E+00  0.00000000E+00
  0.00000000E+00  0.00000000E+00  0.00000000E+00
  0.00000000E+00  0.00000000E+00  0.00000000E+00
  0.00000000E+00  0.00000000E+00  0.00000000E+00
  0.00000000E+00  0.00000000E+00  0.00000000E+00
  0.00000000E+00  0.00000000E+00  0.00000000E+00
  0.00000000E+00  0.00000000E+00  0.00000000E+00
  0.00000000E+00  0.00000000E+00  0.00000000E+00
  0.00000000E+00  0.00000000E+00  0.00000000E+00
  0.00000000E+00  0.00000000E+00  0.00000000E+00
  0.00000000E+00  0.00000000E+00  0.00000000E+00
  0.00000000E+00  0.00000000E+00  0.00000000E+00
  0.00000000E+00  0.00000000E+00  0.00000000E+00
  0.00000000E+00  0.00000000E+00  0.00000000E+00
  0.00000000E+00  0.00000000E+00  0.00000000E+00
  0.00000000E+00  0.00000000E+00  0.00000000E+00
  0.00000000E+00  0.00000000E+00  0.00000000E+00
  0.00000000E+00  0.00000000E+00  0.00000000E+00
  0.00000000E+00  0.00000000E+00  0.00000000E+00
  0.00000000E+00  0.00000000E+00  0.00000000E+00
  0.00000000E+00  0.00000000E+00  0.00000000E+00
  0.00000000E+00  0.00000000E+00  0.00000000E+00
  0.00000000E+00  0.00000000E+00  0.00000000E+00
  0.00000000E+00  0.00000000E+00  0.00000000E+00
  0.00000000E+00  0.00000000E+00  0.00000000E+00
  0.00000000E+00  0.00000000E+00  0.00000000E+00
  0.00000000E+00  0.00000000E+00  0.00000000E+00
  0.00000000E+00  0.00000000E+00  0.00000000E+00
  0.00000000E+00  0.00000000E+00  0.00000000E+00
  0.00000000E+00  0.00000000E+00  0.00000000E+00
  0.00000000E+00  0.00000000E+00  0.00000000E+00
  0.00000000E+00  0.00000000E+00  0.00000000E+00
  0.00000000E+00  0.00000000E+00  0.00000000E+00
  0.00000000E+00  0.00000000E+00  0.00000000E+00
  0.00000000E+00  0.00000000E+00  0.00000000E+00
  0.00000000E+00  0.00000000E+00  0.00000000E+00
  0.00000000E+00  0.00000000E+00  0.00000000E+00
  0.00000000E+00  0.00000000E+00  0.00000000E+00
  0.00000000E+00  0.00000000E+00  0.00000000E+00
  0.00000000E+00  0.00000000E+00  0.00000000E+00
  0.00000000E+00  0.00000000E+00  0.00000000E+00
  0.00000000E+00  0.00000000E+00  0.00000000E+00
  0.00000000E+00  0.00000000E+00  0.00000000E+00
  0.00000000E+00  0.00000000E+00  0.00000000E+00
  0.00000000E+00  0.00000000E+00  0.00000000E+00
  0.00000000E+00  0.00000000E+00  0.00000000E+00
  0.00000000E+00  0.00000000E+00  0.00000000E+00
  0.00000000E+00  0.00000000E+00  0.00000000E+00
  0.00000000E+00  0.00000000E+00  0.00000000E+00
  0.00000000E+00  0.00000000E+00  0.00000000E+00
  0.00000000E+00  0.00000000E+00  0.00000000E+00
  0.00000000E+00  0.00000000E+00  0.00000000E+00
  0.00000000E+00  0.00000000E+00  0.00000000E+00
  0.00000000E+00  0.00000000E+00  0.00000000E+00
  0.00000000E+00  0.00000000E+00  0.00000000E+00
  0.00000000E+00  0.00000000E+00  0.00000000E+00
  0.00000000E+00  0.00000000E+00  0.00000000E+00
  0.00000000E+00  0.00000000E+00  0.00000000E+00
  0.00000000E+00  0.00000000E+00  0.00000000E+00
  0.00000000E+00  0.00000000E+00  0.00000000E+00
  0.00000000E+00  0.00000000E+00  0.00000000E+00
  0.00000000E+00  0.00000000E+00  0.00000000E+00
  0.00000000E+00  0.00000000E+00  0.00000000E+00
  0.00000000E+00  0.00000000E+00  0.00000000E+00
  0.00000000E+00  0.00000000E+00  0.00000000E+00
  0.00000000E+00  0.00000000E+00  0.00000000E+00
  0.00000000E+00  0.00000000E+00  0.00000000E+00
  0.00000000E+00  0.00000000E+00  0.00000000E+00
  0.00000000E+00  0.00000000E+00  0.00000000E+00
  0.00000000E+00  0.00000000E+00  0.00000000E+00
  0.00000000E+00  0.00000000E+00  0.00000000E+00
  0.00000000E+00  0.00000000E+00  0.00000000E+00
  0.00000000E+00  0.00000000E+00  0.00000000E+00
  0.00000000E+00  0.00000000E+00  0.00000000E+00
  0.00000000E+00  0.00000000E+00  0.00000000E+00
  0.00000000E+00  0.00000000E+00  0.00000000E+00
  0.00000000E+00  0.00000000E+00  0.00000000E+00
  0.00000000E+00  0.00000000E+00  0.00000000E+00
  0.00000000E+00  0.00000000E+00  0.00000000E+00
  0.00000000E+00  0.00000000E+00  0.00000000E+00
  0.00000000E+00  0.00000000E+00  0.00000000E+00
  0.00000000E+00  0.00000000E+00  0.00000000E+00
  0.00000000E+00  0.00000000E+00  0.00000000E+00
  0.00000000E+00  0.00000000E+00  0.00000000E+00
  0.00000000E+00  0.00000000E+00  0.00000000E+00
  0.00000000E+00  0.00000000E+00  0.00000000E+00
  0.00000000E+00  0.00000000E+00  0.00000000E+00
  0.00000000E+00  0.00000000E+00  0.00000000E+00
  0.00000000E+00  0.00000000E+00  0.00000000E+00
  0.00000000E+00  0.00000000E+00  0.00000000E+00
  0.00000000E+00  0.00000000E+00  0.00000000E+00
  0.00000000E+00  0.00000000E+00  0.00000000E+00
  0.00000000E+00  0.00000000E+00  0.00000000E+00
  0.00000000E+00  0.00000000E+00  0.00000000E+00
  0.00000000E+00  0.00000000E+00  0.00000000E+00
  0.00000000E+00  0.00000000E+00  0.00000000E+00
  0.00000000E+00  0.00000000E+00  0.00000000E+00
  0.00000000E+00  0.00000000E+00  0.00000000E+00
  0.00000000E+00  0.00000000E+00  0.00000000E+00
  0.00000000E+00  0.00000000E+00  0.00000000E+00
  0.00000000E+00  0.00000000E+00  0.00000000E+00
  0.00000000E+00  0.00000000E+00  0.00000000E+00
  0.00000000E+00  0.00000000E+00  0.00000000E+00
  0.00000000E+00  0.00000000E+00  0.00000000E+00
  0.00000000E+00  0.00000000E+00  0.00000000E+00
  0.00000000E+00  0.00000000E+00  0.00000000E+00
  0.00000000E+00  0.00000000E+00  0.00000000E+00
  0.00000000E+00  0.00000000E+00  0.00000000E+00
  0.00000000E+00  0.00000000E+00  0.00000000E+00
  0.00000000E+00  0.00000000E+00  0.00000000E+00
  0.00000000E+00  0.00000000E+00  0.00000000E+00
  0.00000000E+00  0.00000000E+00  0.00000000E+00
  0.00000000E+00  0.00000000E+00  0.00000000E+00
  0.00000000E+00  0.00000000E+00  0.00000000E+00
  0.00000000E+00  0.00000000E+00  0.00000000E+00
