Ga Cr  O
   1.00000000000000
    11.8609006217508721    0.0000000000000000   -2.9126240731473736
     0.0000000000000000   12.1318613217336004    0.0000000000000000
     0.0000000000000000    0.0000000000000000   11.5777857733786895
   Ga   Cr   O
    63     1    96
Direct
  0.0900403193096914  0.0000397080252929  0.3962080111927623
  0.4109398032884821  0.6249868076096227  0.6040108812897657
  0.5893356291420547  0.6250576750746691  0.8960736966989981
  0.1596802184316412  0.6249029121753621  0.6557590052285998
  0.8405308010279496  0.6248991713966070  0.8442162957754382
  0.9102150324851860  0.5000486338403216  0.6037410172304878
  0.0898982035174246  0.5000768223363152  0.8960886799831501
  0.8405225916495860  0.3752793118119761  0.8441363028290798
  0.9113711039514308  0.2500528887352659  0.6038995030319236
  0.0888131658040936  0.2500399468007887  0.8960514217635442
  0.8405241639715446  0.6249148286566680  0.3442427292136243
  0.6596601496104232  0.9999686374437433  0.6562560679547225
  0.1597188925271814  0.6249315472994130  0.1558131999358472
  0.0886552854596901  0.2500780661409707  0.3962353429495135
  0.9113489574887721  0.2500790237894024  0.1038392580277930
  0.8406256322782868  0.3753509909272491  0.3441175081118811
  0.1590547969642054  0.3755250219972137  0.1555359935246249
  0.5900019491082814  0.3753349635264230  0.3964401692339040
  0.4109365220865637  0.3753898077423922  0.1038961594171732
  0.6599051492091637  0.2502135626300402  0.1554043617861474
  0.4108793830463031  0.6251146323753695  0.1038990758517594
  0.3408808889220070  0.5003017997494495  0.3445910944848295
  0.5894373475379752  0.6250555599791465  0.3960747053073023
  0.3406223032499573  0.0001294959346055  0.8438724066158969
  0.4108350916184857  0.1250983703567183  0.6036127494516228
  0.5893179656064794  0.1250720060414991  0.8960194569351226
  0.9101100515363449  0.9999345004994498  0.1036950104807856
  0.8406166156196659  0.1248570415812463  0.3441285252251879
  0.1590135583048816  0.1246046636145697  0.1555483439007302
  0.5900026795641338  0.1248843212528241  0.3964473886294313
  0.4109899614815752  0.1249610853408627  0.1039316209835304
  0.3408717768382350  0.9999541558839108  0.3446063185676950
  0.6596701399251977  0.0001879645766968  0.1560874638035314
  0.0900493220035401  0.5001159465879713  0.3961725553924961
  0.6596705386088046  0.5002086071876609  0.1560862454670134
  0.6598036619646545  0.2500778788858919  0.6552832764872121
  0.9101634227972897  0.5002001033558739  0.1037161282847728
  0.4107970751426241  0.3750951088957512  0.6035870982933820
  0.5893859036942748  0.3752931708550744  0.8960190769328812
  0.1597183130268524  0.3752895634333372  0.6557410389813592
  0.6596516130471390  0.5001705438665532  0.6562343120192704
  0.3406340099313263  0.5000859623404483  0.8438522867578083
  0.0898773675658462  0.0000177778603376  0.8961169492295255
  0.9101787107635879  0.0000463647027122  0.6037335492685721
  0.8404979854733097  0.1248849593982488  0.8441635216563562
  0.1597065952938458  0.1248543718531090  0.6557520746530976
  0.3403468478265839  0.2501134433398228  0.8446390291793403
  0.0887416092970641  0.7500891278446066  0.3960452212782364
  0.9113572461735446  0.7500640956830402  0.1039770976092125
  0.8405291157770274  0.8752784927804131  0.3442357090806111
  0.1596614260851422  0.8752305369249280  0.1558510886215186
  0.5895190970566990  0.8752431935213636  0.3960945190569229
  0.4107906412758480  0.8752741405160892  0.1039057150785516
  0.3404626588055845  0.7501806534908867  0.3445150947229311
  0.6598530569681335  0.7502115261345258  0.1553928824771214
  0.0888037010804824  0.7500433688780987  0.8960366597984301
  0.9113849634680911  0.7500393370142764  0.6039641882184371
  0.8405490018430981  0.8752325309064330  0.8441953049561108
  0.1596214351877458  0.8752411530480508  0.6558082581987854
  0.5894224405275545  0.8753232183819573  0.8960902152086777
  0.4108456587511181  0.8752746392172276  0.6040236078465102
  0.3404089462546929  0.7501384206465114  0.8446041255654930
  0.6598114056646209  0.7500897265168576  0.6553275913084994
  0.3395435685718801  0.2501260437706113  0.3399099270466668
  0.6725991807251347  0.3755107242768053  0.7808217599431487
  0.3277436260162136  0.3754755977186283  0.7193042446535396
  0.5027975987479485  0.2502271344833460  0.8724578090217903
  0.1644802633001136  0.5000534411235146  0.0528750635720483
  0.4973194568608549  0.5001727090410135  0.1278836161138787
  0.9973437123366232  0.6244706059415090  0.1276999164434389
  0.5028491029677580  0.5001550894163252  0.8721900222816493
  0.4973979167188098  0.5000794429233951  0.6280510461110466
  0.3360599520939661  0.6245002915377397  0.9470767120537235
  0.6641914368755717  0.6244948601511128  0.5529295228695031
  0.1725243270313147  0.5001066874235559  0.7804984250486017
  0.8277801715398699  0.5001375550966836  0.7195641670589060
  0.0028628365754992  0.6244384654331703  0.8722112485513080
  0.9973204058574703  0.6244096034325360  0.6277184247538238
  0.8356981641440628  0.5000959842875137  0.9469973880586811
  0.1644793665546991  0.5001120002832145  0.5529416198614215
  0.6725296454100150  0.6247888047382073  0.2806941092912494
  0.3277490111764158  0.6246517066328042  0.2192663797168395
  0.5031033608623965  0.5000646772222441  0.3721008948741257
  0.4975289820383985  0.2501246332443537  0.6279820999105321
  0.3361310862699462  0.6247006560697488  0.4471853600502250
  0.6641369174963918  0.6245500681595194  0.0528679234896480
  0.1725545920503062  0.5001282315168573  0.2804163885351092
  0.8277346978617869  0.5001889683244791  0.2194185797375303
  0.0028787146396342  0.6244394936746320  0.3722522895166146
  0.8356489990675082  0.5001056467638406  0.4470389472136466
  0.3359170723125502  0.3757860675708670  0.9472320714917783
  0.6726868287920077  0.3756543357393562  0.2806119020051911
  0.1725079163814648  0.2500796858187753  0.7809925630047619
  0.1724959905643282  0.0000486849584313  0.7805225428451911
  0.8277827219446946  0.9999526075940817  0.7195828776674372
  0.0028735127193216  0.1244177402455316  0.8722378377269998
  0.9972841731537992  0.1243999617235137  0.6276886722980237
  0.8356626837568006  0.0000431860860567  0.9469752103354399
  0.1644349292334941  0.0000130542611775  0.5529793162405052
  0.6726927262691901  0.1246467809436150  0.2806294928171774
  0.3277921105349635  0.1247594332397825  0.2195436687207565
  0.6647303057122280  0.1241827153083977  0.5532718764549054
  0.5031114565197257  0.0001563437584690  0.3721263177683378
  0.3360865012239195  0.1242662692950946  0.4470710192351061
  0.6640720676514943  0.1245920303049296  0.0528550396495803
  0.1725140580630285  0.0000827649959499  0.2804328253500784
  0.8277253096059678  0.0000187162200613  0.2194276521008201
  0.0028660916001628  0.1243326939471374  0.3722413376217097
  0.9970845089272187  0.1243412387579388  0.1275214450818352
  0.8356227531940875  0.0000768961512553  0.4470337906575665
  0.1644434086276752  0.0000623635264254  0.0528982526356132
  0.4973229040818277  0.0001477657932254  0.1278997433080535
  0.3359719853799997  0.1244633338644561  0.9472498257818877
  0.4974080124073013  0.0000985469181581  0.6280769513663754
  0.5028495382051178  0.0001510652176780  0.8722085901668098
  0.8277458637725915  0.2500536223896004  0.7190759552658391
  0.0028974898435414  0.3756828676515370  0.8722237728998405
  0.9973069855933057  0.3756994419312783  0.6276940195136308
  0.8365317789377830  0.2501271952226053  0.9469633128792080
  0.1635800598294970  0.2500839117386278  0.5530608606147315
  0.3276966681892731  0.6247125584523273  0.7192634656344241
  0.3277930038726993  0.3754234691977932  0.2195367880110188
  0.5044226117220861  0.2501164027073757  0.3738735673380323
  0.4972552078980032  0.2502179247394096  0.1280375063401029
  0.3360982023883466  0.3759581778230833  0.4470310677992818
  0.6641167514935821  0.3758001767690792  0.0528494815576376
  0.1713863662961258  0.2501086818784407  0.2805296010919647
  0.8277971911472444  0.2501424251242598  0.2189693466634547
  0.0028786809771177  0.3758365187066035  0.3722129507534601
  0.9971317492708013  0.3757891037755610  0.1275324700287390
  0.8365204520280333  0.2501316082214465  0.4469625977510858
  0.1638171894395241  0.2500543620007398  0.0530588758419475
  0.6725825389426745  0.1246957152822555  0.7808490378654785
  0.3277487749782924  0.1246545169786802  0.7193053556987237
  0.6647169039130103  0.3759556880930692  0.5532515695111366
  0.6725216601124100  0.6247393938697061  0.7807660357013714
  0.1637299849286942  0.7500923897542789  0.0529308907083978
  0.8364635312252030  0.7501073546153421  0.4470793623442984
  0.9973017729421806  0.8756757243418971  0.1277153770131424
  0.0028657484873087  0.8757262158125760  0.3722944182424427
  0.8277136796507053  0.7501110293301115  0.2190612333130436
  0.1724825259465639  0.7501567301263500  0.2809489913291118
  0.6642208324442945  0.8758407569792037  0.0528707175281930
  0.3360509053348054  0.8756067193601330  0.4472126355274638
  0.4973554307550948  0.7502515847071427  0.1276015413390343
  0.5029252501592439  0.7501961343548300  0.3722732541835301
  0.3277314977910611  0.8755923415820196  0.2193130438117057
  0.6725545321127396  0.8755020140994169  0.2806846922492179
  0.1637356576810261  0.7500979953724342  0.5529517141633271
  0.8364556434697580  0.7500927137633246  0.9470465515210942
  0.9972796919499345  0.8756900834822079  0.6277552686244394
  0.0028620386503682  0.8756480365373710  0.8722559919704969
  0.8277037293554457  0.7500238893238229  0.7190774484938751
  0.1724876990060695  0.7500971727220953  0.7809408991278842
  0.6642853398248475  0.8756796453072463  0.5529387711160109
  0.3359752640376962  0.8757796246943872  0.9470944682617646
  0.4973632716586486  0.7501775819864593  0.6276881552540609
  0.5028745573720413  0.7502412894039655  0.8723394660135545
  0.3276577016970584  0.8754573667385724  0.7193054500627621
  0.6725537633839590  0.8754467975883757  0.7807510765598525

  0.00000000E+00  0.00000000E+00  0.00000000E+00
  0.00000000E+00  0.00000000E+00  0.00000000E+00
  0.00000000E+00  0.00000000E+00  0.00000000E+00
  0.00000000E+00  0.00000000E+00  0.00000000E+00
  0.00000000E+00  0.00000000E+00  0.00000000E+00
  0.00000000E+00  0.00000000E+00  0.00000000E+00
  0.00000000E+00  0.00000000E+00  0.00000000E+00
  0.00000000E+00  0.00000000E+00  0.00000000E+00
  0.00000000E+00  0.00000000E+00  0.00000000E+00
  0.00000000E+00  0.00000000E+00  0.00000000E+00
  0.00000000E+00  0.00000000E+00  0.00000000E+00
  0.00000000E+00  0.00000000E+00  0.00000000E+00
  0.00000000E+00  0.00000000E+00  0.00000000E+00
  0.00000000E+00  0.00000000E+00  0.00000000E+00
  0.00000000E+00  0.00000000E+00  0.00000000E+00
  0.00000000E+00  0.00000000E+00  0.00000000E+00
  0.00000000E+00  0.00000000E+00  0.00000000E+00
  0.00000000E+00  0.00000000E+00  0.00000000E+00
  0.00000000E+00  0.00000000E+00  0.00000000E+00
  0.00000000E+00  0.00000000E+00  0.00000000E+00
  0.00000000E+00  0.00000000E+00  0.00000000E+00
  0.00000000E+00  0.00000000E+00  0.00000000E+00
  0.00000000E+00  0.00000000E+00  0.00000000E+00
  0.00000000E+00  0.00000000E+00  0.00000000E+00
  0.00000000E+00  0.00000000E+00  0.00000000E+00
  0.00000000E+00  0.00000000E+00  0.00000000E+00
  0.00000000E+00  0.00000000E+00  0.00000000E+00
  0.00000000E+00  0.00000000E+00  0.00000000E+00
  0.00000000E+00  0.00000000E+00  0.00000000E+00
  0.00000000E+00  0.00000000E+00  0.00000000E+00
  0.00000000E+00  0.00000000E+00  0.00000000E+00
  0.00000000E+00  0.00000000E+00  0.00000000E+00
  0.00000000E+00  0.00000000E+00  0.00000000E+00
  0.00000000E+00  0.00000000E+00  0.00000000E+00
  0.00000000E+00  0.00000000E+00  0.00000000E+00
  0.00000000E+00  0.00000000E+00  0.00000000E+00
  0.00000000E+00  0.00000000E+00  0.00000000E+00
  0.00000000E+00  0.00000000E+00  0.00000000E+00
  0.00000000E+00  0.00000000E+00  0.00000000E+00
  0.00000000E+00  0.00000000E+00  0.00000000E+00
  0.00000000E+00  0.00000000E+00  0.00000000E+00
  0.00000000E+00  0.00000000E+00  0.00000000E+00
  0.00000000E+00  0.00000000E+00  0.00000000E+00
  0.00000000E+00  0.00000000E+00  0.00000000E+00
  0.00000000E+00  0.00000000E+00  0.00000000E+00
  0.00000000E+00  0.00000000E+00  0.00000000E+00
  0.00000000E+00  0.00000000E+00  0.00000000E+00
  0.00000000E+00  0.00000000E+00  0.00000000E+00
  0.00000000E+00  0.00000000E+00  0.00000000E+00
  0.00000000E+00  0.00000000E+00  0.00000000E+00
  0.00000000E+00  0.00000000E+00  0.00000000E+00
  0.00000000E+00  0.00000000E+00  0.00000000E+00
  0.00000000E+00  0.00000000E+00  0.00000000E+00
  0.00000000E+00  0.00000000E+00  0.00000000E+00
  0.00000000E+00  0.00000000E+00  0.00000000E+00
  0.00000000E+00  0.00000000E+00  0.00000000E+00
  0.00000000E+00  0.00000000E+00  0.00000000E+00
  0.00000000E+00  0.00000000E+00  0.00000000E+00
  0.00000000E+00  0.00000000E+00  0.00000000E+00
  0.00000000E+00  0.00000000E+00  0.00000000E+00
  0.00000000E+00  0.00000000E+00  0.00000000E+00
  0.00000000E+00  0.00000000E+00  0.00000000E+00
  0.00000000E+00  0.00000000E+00  0.00000000E+00
  0.00000000E+00  0.00000000E+00  0.00000000E+00
  0.00000000E+00  0.00000000E+00  0.00000000E+00
  0.00000000E+00  0.00000000E+00  0.00000000E+00
  0.00000000E+00  0.00000000E+00  0.00000000E+00
  0.00000000E+00  0.00000000E+00  0.00000000E+00
  0.00000000E+00  0.00000000E+00  0.00000000E+00
  0.00000000E+00  0.00000000E+00  0.00000000E+00
  0.00000000E+00  0.00000000E+00  0.00000000E+00
  0.00000000E+00  0.00000000E+00  0.00000000E+00
  0.00000000E+00  0.00000000E+00  0.00000000E+00
  0.00000000E+00  0.00000000E+00  0.00000000E+00
  0.00000000E+00  0.00000000E+00  0.00000000E+00
  0.00000000E+00  0.00000000E+00  0.00000000E+00
  0.00000000E+00  0.00000000E+00  0.00000000E+00
  0.00000000E+00  0.00000000E+00  0.00000000E+00
  0.00000000E+00  0.00000000E+00  0.00000000E+00
  0.00000000E+00  0.00000000E+00  0.00000000E+00
  0.00000000E+00  0.00000000E+00  0.00000000E+00
  0.00000000E+00  0.00000000E+00  0.00000000E+00
  0.00000000E+00  0.00000000E+00  0.00000000E+00
  0.00000000E+00  0.00000000E+00  0.00000000E+00
  0.00000000E+00  0.00000000E+00  0.00000000E+00
  0.00000000E+00  0.00000000E+00  0.00000000E+00
  0.00000000E+00  0.00000000E+00  0.00000000E+00
  0.00000000E+00  0.00000000E+00  0.00000000E+00
  0.00000000E+00  0.00000000E+00  0.00000000E+00
  0.00000000E+00  0.00000000E+00  0.00000000E+00
  0.00000000E+00  0.00000000E+00  0.00000000E+00
  0.00000000E+00  0.00000000E+00  0.00000000E+00
  0.00000000E+00  0.00000000E+00  0.00000000E+00
  0.00000000E+00  0.00000000E+00  0.00000000E+00
  0.00000000E+00  0.00000000E+00  0.00000000E+00
  0.00000000E+00  0.00000000E+00  0.00000000E+00
  0.00000000E+00  0.00000000E+00  0.00000000E+00
  0.00000000E+00  0.00000000E+00  0.00000000E+00
  0.00000000E+00  0.00000000E+00  0.00000000E+00
  0.00000000E+00  0.00000000E+00  0.00000000E+00
  0.00000000E+00  0.00000000E+00  0.00000000E+00
  0.00000000E+00  0.00000000E+00  0.00000000E+00
  0.00000000E+00  0.00000000E+00  0.00000000E+00
  0.00000000E+00  0.00000000E+00  0.00000000E+00
  0.00000000E+00  0.00000000E+00  0.00000000E+00
  0.00000000E+00  0.00000000E+00  0.00000000E+00
  0.00000000E+00  0.00000000E+00  0.00000000E+00
  0.00000000E+00  0.00000000E+00  0.00000000E+00
  0.00000000E+00  0.00000000E+00  0.00000000E+00
  0.00000000E+00  0.00000000E+00  0.00000000E+00
  0.00000000E+00  0.00000000E+00  0.00000000E+00
  0.00000000E+00  0.00000000E+00  0.00000000E+00
  0.00000000E+00  0.00000000E+00  0.00000000E+00
  0.00000000E+00  0.00000000E+00  0.00000000E+00
  0.00000000E+00  0.00000000E+00  0.00000000E+00
  0.00000000E+00  0.00000000E+00  0.00000000E+00
  0.00000000E+00  0.00000000E+00  0.00000000E+00
  0.00000000E+00  0.00000000E+00  0.00000000E+00
  0.00000000E+00  0.00000000E+00  0.00000000E+00
  0.00000000E+00  0.00000000E+00  0.00000000E+00
  0.00000000E+00  0.00000000E+00  0.00000000E+00
  0.00000000E+00  0.00000000E+00  0.00000000E+00
  0.00000000E+00  0.00000000E+00  0.00000000E+00
  0.00000000E+00  0.00000000E+00  0.00000000E+00
  0.00000000E+00  0.00000000E+00  0.00000000E+00
  0.00000000E+00  0.00000000E+00  0.00000000E+00
  0.00000000E+00  0.00000000E+00  0.00000000E+00
  0.00000000E+00  0.00000000E+00  0.00000000E+00
  0.00000000E+00  0.00000000E+00  0.00000000E+00
  0.00000000E+00  0.00000000E+00  0.00000000E+00
  0.00000000E+00  0.00000000E+00  0.00000000E+00
  0.00000000E+00  0.00000000E+00  0.00000000E+00
  0.00000000E+00  0.00000000E+00  0.00000000E+00
  0.00000000E+00  0.00000000E+00  0.00000000E+00
  0.00000000E+00  0.00000000E+00  0.00000000E+00
  0.00000000E+00  0.00000000E+00  0.00000000E+00
  0.00000000E+00  0.00000000E+00  0.00000000E+00
  0.00000000E+00  0.00000000E+00  0.00000000E+00
  0.00000000E+00  0.00000000E+00  0.00000000E+00
  0.00000000E+00  0.00000000E+00  0.00000000E+00
  0.00000000E+00  0.00000000E+00  0.00000000E+00
  0.00000000E+00  0.00000000E+00  0.00000000E+00
  0.00000000E+00  0.00000000E+00  0.00000000E+00
  0.00000000E+00  0.00000000E+00  0.00000000E+00
  0.00000000E+00  0.00000000E+00  0.00000000E+00
  0.00000000E+00  0.00000000E+00  0.00000000E+00
  0.00000000E+00  0.00000000E+00  0.00000000E+00
  0.00000000E+00  0.00000000E+00  0.00000000E+00
  0.00000000E+00  0.00000000E+00  0.00000000E+00
  0.00000000E+00  0.00000000E+00  0.00000000E+00
  0.00000000E+00  0.00000000E+00  0.00000000E+00
  0.00000000E+00  0.00000000E+00  0.00000000E+00
  0.00000000E+00  0.00000000E+00  0.00000000E+00
  0.00000000E+00  0.00000000E+00  0.00000000E+00
  0.00000000E+00  0.00000000E+00  0.00000000E+00
  0.00000000E+00  0.00000000E+00  0.00000000E+00
  0.00000000E+00  0.00000000E+00  0.00000000E+00
  0.00000000E+00  0.00000000E+00  0.00000000E+00
  0.00000000E+00  0.00000000E+00  0.00000000E+00
  0.00000000E+00  0.00000000E+00  0.00000000E+00
