ALGO = Fast
EDIFF = 0.00001
EDIFFG = -0.01
ENCUT = 420
IBRION = 2
ISIF = 2
ISMEAR = 1
ISPIN = 2
#LASPH = True
#LMAXMIX = 4
LORBIT = 11
LREAL = Auto
LWAVE = False
#MAGMOM = 20*0.6
NCORE = 6
NELM = 100
NELMIN = 6
NSW = 100
PREC = Accurate
SIGMA = 0.01
