Ga  O
   1.00000000000000
    11.8609006217508721    0.0000000000000000   -2.9126240731473736
     0.0000000000000000   12.1318613217336004    0.0000000000000000
     0.0000000000000000    0.0000000000000000   11.5777857733786895
   Ga   O
    63    96
Direct
  0.5000000000000000  0.3759581818569415  0.5000000000000000
  0.0910508176403732  0.9999460992937698  0.3965460392027141
  0.4114733668215008  0.6139761110243767  0.6016427759445353
  0.5893793629014653  0.6238351244567085  0.8981390888286312
  0.1600662818158586  0.6245014171984546  0.6560138286342388
  0.8406074494295221  0.6256765091644150  0.8448279278274280
  0.9127668287217214  0.4998680137580449  0.6056482139784105
  0.0881840002967709  0.5012551023989044  0.8944762949205340
  0.8411427634813223  0.3749061512554838  0.8479954152444267
  0.9140305669126810  0.2500194932278033  0.6057624929699401
  0.0871819667545361  0.2484701728062107  0.8943709707216015
  0.8399337181841413  0.6245014171984546  0.3439861713657682
  0.6566609690122315  0.0010832404749951  0.6542924339952085
  0.1593925505704779  0.6256765091644150  0.1551720721725720
  0.0859694330873189  0.2500194932278033  0.3942375070300598
  0.9128180332454638  0.2484701728062107  0.1056290292783985
  0.8335867548543562  0.3749648195690307  0.3486846723865401
  0.1588572365186776  0.3749061512554838  0.1520045847555734
  0.4139970962943298  0.3747667199100577  0.1073105419679131
  0.3374494182846025  0.2496187119913692  0.3416171994104916
  0.6613134771433209  0.2548762466850221  0.1599917152850558
  0.4106206370985347  0.6238351244567085  0.1018609111713688
  0.3374766525999359  0.5007449411635059  0.3403503464444787
  0.5885266331784992  0.6139761110243767  0.3983572240554646
  0.3417272405290670  0.0016495833584727  0.8418164450181552
  0.4125019465092598  0.1359051946040387  0.6019833678057703
  0.5896882569909760  0.1255571251023238  0.8983149412946290
  0.9091861692174391  0.9995503077674280  0.1039345561146709
  0.8397973679643417  0.1249518554048234  0.3437945900072544
  0.1595813952927736  0.1239198561530530  0.1556806722378702
  0.5874980534907402  0.1359051946040387  0.3980166321942297
  0.4103117430090239  0.1255571251023238  0.1016850587053710
  0.3433390309877686  0.0010832404749951  0.3457075660047987
  0.6582727594709329  0.0016495833584727  0.1581835549818447
  0.0872331712782786  0.4998680137580449  0.3943517860215895
  0.6611705527627607  0.4952655050231512  0.1602373710727440
  0.6625505817153976  0.2496187119913692  0.6583828005895155
  0.9118159997032291  0.5012551023989044  0.1055237050794659
  0.5860029037056701  0.3747667199100577  0.8926894580320869
  0.1664132451456438  0.3749648195690307  0.6513153276134670
  0.6625233474000641  0.5007449411635059  0.6596496535555283
  0.3388294472372392  0.4952655050231512  0.8397626289272559
  0.0908138307825609  0.9995503077674280  0.8960654438853290
  0.9089491823596267  0.9999460992937698  0.6034539607972860
  0.8404186047072264  0.1239198561530530  0.8443193277621297
  0.1602026320356583  0.1249518554048234  0.6562054099927526
  0.3386865228566792  0.2548762466850221  0.8400082847149443
  0.0898861878690376  0.7503772095725871  0.3963893944244125
  0.9105576202181327  0.7509996263251062  0.1041116219632960
  0.8403798355581605  0.8753894185445086  0.3434208707274015
  0.1605478293030399  0.8754454248326635  0.1574949433236836
  0.5874166402611181  0.8746805663309042  0.3957069743847799
  0.4099327790152592  0.8750917654462801  0.1026741893803810
  0.3428390109903533  0.7489512843378421  0.3463586720237141
  0.6587045374262900  0.7486093158787140  0.1573438830433921
  0.0894423797818673  0.7509996263251062  0.8958883780367040
  0.9101138121309624  0.7503772095725871  0.6036106055755875
  0.8394521706969601  0.8754454248326635  0.8425050566763164
  0.1596201644418394  0.8753894185445086  0.6565791292725985
  0.5900672209847408  0.8750917654462801  0.8973258106196189
  0.4125833597388819  0.8746805663309042  0.6042930256152201
  0.3412954625737101  0.7486093158787140  0.8426561169566078
  0.6571609890096466  0.7489512843378421  0.6536413279762859
  0.6793415781565855  0.3754335830499035  0.7896722563160032
  0.3184420820751174  0.3753296579589128  0.7287907325395931
  0.5020692992081502  0.2484253003457382  0.8713807805311644
  0.1604979309943271  0.5015585444609314  0.0512394997248548
  0.4979772907662770  0.5008480005391044  0.1288430725799002
  0.9977904648106274  0.6268526674104409  0.1272325589999609
  0.5020227092337229  0.5008480005391044  0.8711569274201069
  0.5033985410838564  0.4968341405238922  0.6209441825044523
  0.3361900034773499  0.6238170478884920  0.9453356582069906
  0.6693429018896654  0.6258604522480824  0.5536508968207758
  0.1686960615898375  0.5064785468635196  0.7802540282653023
  0.8306307787560293  0.5012011781752126  0.7217006545705237
  0.0022095351893796  0.6268526674104409  0.8727674410000392
  0.9969741240973428  0.6261680557494124  0.6281860885670899
  0.8395020690056729  0.5015585444609314  0.9487605002751452
  0.1606180247066591  0.5014413191771723  0.5507441995677338
  0.6725715542207384  0.6251123216347961  0.2827800779934993
  0.3257708739044472  0.6257380222182187  0.2163375105558643
  0.4966014589161435  0.4968341405238922  0.3790558174955478
  0.5032699559864346  0.2546396565666146  0.6207639391669378
  0.3306570981103345  0.6258604522480824  0.4463491031792241
  0.6638099965226502  0.6238170478884920  0.0546643417930094
  0.1693692212439707  0.5012011781752126  0.2782993454294834
  0.8313039384101625  0.5064785468635196  0.2197459717347048
  0.0030258759026644  0.6261680557494124  0.3718139114329101
  0.8393819752933409  0.5014413191771723  0.4492558004322662
  0.3358286410712966  0.3756069009849561  0.9519124873204369
  0.6815579179248825  0.3753296579589128  0.2712092674604140
  0.1687581619271169  0.2421895676315408  0.7807324296836902
  0.1728099936102696  0.9985333402457377  0.7804977378910432
  0.8270634565008829  0.9989713523478904  0.7196196599942734
  0.0020634653337374  0.1220673815271067  0.8726408382207392
  0.9970400067698587  0.1226589736209698  0.6283498616657303
  0.8350045571211232  0.9990191615263275  0.9473671898360430
  0.1633371530312697  0.9991937580804023  0.5533268379615781
  0.6720610524053398  0.1241674808254836  0.2829541117450242
  0.3263295842629321  0.1235652407139769  0.2168686870927670
  0.6683834965926744  0.1230732033427021  0.5533065701221905
  0.5046029018791734  0.0026220832963729  0.3729128586507016
  0.3316165034073256  0.1230732033427021  0.4466934298778095
  0.6638218164867394  0.1248804847815862  0.0547630616596611
  0.1729365434991172  0.9989713523478904  0.2803803400057339
  0.8271900063897304  0.9985333402457377  0.2195022621089640
  0.0029599932301484  0.1226589736209698  0.3716501383342698
  0.9979365346662696  0.1220673815271067  0.1273591617792608
  0.8366628469687303  0.9991937580804023  0.4466731620384219
  0.1649954428788839  0.9990191615263275  0.0526328101639499
  0.4961664398919395  0.9998911021934326  0.1272167694226464
  0.3361781835132606  0.1248804847815862  0.9452369383403390
  0.4953970981208264  0.0026220832963729  0.6270871413492984
  0.5038335601080606  0.9998911021934326  0.8727832305773607
  0.8304671677908972  0.2482735486350828  0.7210720833103749
  0.0029593084248354  0.3754657064163480  0.8727524586641751
  0.9999755736979056  0.3756019823521543  0.6292732860130029
  0.8400503712726091  0.2475740427726094  0.9487019857967823
  0.1597605485655432  0.2478575017990281  0.5507440468570681
  0.3274284457792616  0.6251123216347961  0.7172199220065079
  0.3206584218434145  0.3754335830499035  0.2103277436840038
  0.4967300440135653  0.2546396565666146  0.3792360608330622
  0.4979307007918499  0.2484253003457382  0.1286192194688426
  0.3396026747860210  0.3759496463504589  0.4391466849749615
  0.6641713589287034  0.3756069009849561  0.0480875126795632
  0.1695328322091028  0.2482735486350828  0.2789279166896322
  0.8312418380728831  0.2421895676315408  0.2192675703163170
  0.0000244263021016  0.3756019823521543  0.3707267139869970
  0.9970406915751717  0.3754657064163480  0.1272475413358249
  0.8402394514344568  0.2478575017990281  0.4492559531429319
  0.1599496287273910  0.2475740427726094  0.0512980142032177
  0.6736704157370680  0.1235652407139769  0.7831313129072401
  0.3279389475946603  0.1241674808254836  0.7170458882549829
  0.6603973252139790  0.3759496463504589  0.5608533150250387
  0.6742291260955527  0.6257380222182187  0.7836624894441427
  0.1640237647931994  0.7516784291745953  0.0525882647428959
  0.8374757645642608  0.7512354735839776  0.4466153976798486
  0.9972910148468437  0.8759404957332989  0.1275836951277775
  0.0035490372813789  0.8757919727334444  0.3717468323975652
  0.8273644349813930  0.7521272810279525  0.2189934653666044
  0.1726905666515614  0.7517428922799280  0.2806337570918214
  0.6634643458652790  0.8757465154083305  0.0541827914558473
  0.3374144434034868  0.8755105193536621  0.4471596636715501
  0.4962020222233250  0.7499719781420435  0.1269540858686056
  0.5045284041189384  0.7461729127909793  0.3730319144063200
  0.3288239128754140  0.8754538386240489  0.2196518205027310
  0.6714371231285703  0.8753947329046118  0.2809247079917149
  0.1625242354357392  0.7512354735839776  0.5533846023201513
  0.8359762352068006  0.7516784291745953  0.9474117352571112
  0.9964509627186212  0.8757919727334444  0.6282531676024349
  0.0027089851531564  0.8759404957332989  0.8724163048722224
  0.8273094333484386  0.7517428922799280  0.7193662429081786
  0.1726355650186070  0.7521272810279525  0.7810065346333956
  0.6625855565965132  0.8755105193536621  0.5528403363284499
  0.3365356541347210  0.8757465154083305  0.9458172085441527
  0.4954715958810616  0.7461729127909793  0.6269680855936799
  0.5037979777766750  0.7499719781420435  0.8730459141313944
  0.3285628768714297  0.8753947329046118  0.7190752920082850
  0.6711760871245860  0.8754538386240489  0.7803481794972690

  0.00000000E+00  0.00000000E+00  0.00000000E+00
  0.00000000E+00  0.00000000E+00  0.00000000E+00
  0.00000000E+00  0.00000000E+00  0.00000000E+00
  0.00000000E+00  0.00000000E+00  0.00000000E+00
  0.00000000E+00  0.00000000E+00  0.00000000E+00
  0.00000000E+00  0.00000000E+00  0.00000000E+00
  0.00000000E+00  0.00000000E+00  0.00000000E+00
  0.00000000E+00  0.00000000E+00  0.00000000E+00
  0.00000000E+00  0.00000000E+00  0.00000000E+00
  0.00000000E+00  0.00000000E+00  0.00000000E+00
  0.00000000E+00  0.00000000E+00  0.00000000E+00
  0.00000000E+00  0.00000000E+00  0.00000000E+00
  0.00000000E+00  0.00000000E+00  0.00000000E+00
  0.00000000E+00  0.00000000E+00  0.00000000E+00
  0.00000000E+00  0.00000000E+00  0.00000000E+00
  0.00000000E+00  0.00000000E+00  0.00000000E+00
  0.00000000E+00  0.00000000E+00  0.00000000E+00
  0.00000000E+00  0.00000000E+00  0.00000000E+00
  0.00000000E+00  0.00000000E+00  0.00000000E+00
  0.00000000E+00  0.00000000E+00  0.00000000E+00
  0.00000000E+00  0.00000000E+00  0.00000000E+00
  0.00000000E+00  0.00000000E+00  0.00000000E+00
  0.00000000E+00  0.00000000E+00  0.00000000E+00
  0.00000000E+00  0.00000000E+00  0.00000000E+00
  0.00000000E+00  0.00000000E+00  0.00000000E+00
  0.00000000E+00  0.00000000E+00  0.00000000E+00
  0.00000000E+00  0.00000000E+00  0.00000000E+00
  0.00000000E+00  0.00000000E+00  0.00000000E+00
  0.00000000E+00  0.00000000E+00  0.00000000E+00
  0.00000000E+00  0.00000000E+00  0.00000000E+00
  0.00000000E+00  0.00000000E+00  0.00000000E+00
  0.00000000E+00  0.00000000E+00  0.00000000E+00
  0.00000000E+00  0.00000000E+00  0.00000000E+00
  0.00000000E+00  0.00000000E+00  0.00000000E+00
  0.00000000E+00  0.00000000E+00  0.00000000E+00
  0.00000000E+00  0.00000000E+00  0.00000000E+00
  0.00000000E+00  0.00000000E+00  0.00000000E+00
  0.00000000E+00  0.00000000E+00  0.00000000E+00
  0.00000000E+00  0.00000000E+00  0.00000000E+00
  0.00000000E+00  0.00000000E+00  0.00000000E+00
  0.00000000E+00  0.00000000E+00  0.00000000E+00
  0.00000000E+00  0.00000000E+00  0.00000000E+00
  0.00000000E+00  0.00000000E+00  0.00000000E+00
  0.00000000E+00  0.00000000E+00  0.00000000E+00
  0.00000000E+00  0.00000000E+00  0.00000000E+00
  0.00000000E+00  0.00000000E+00  0.00000000E+00
  0.00000000E+00  0.00000000E+00  0.00000000E+00
  0.00000000E+00  0.00000000E+00  0.00000000E+00
  0.00000000E+00  0.00000000E+00  0.00000000E+00
  0.00000000E+00  0.00000000E+00  0.00000000E+00
  0.00000000E+00  0.00000000E+00  0.00000000E+00
  0.00000000E+00  0.00000000E+00  0.00000000E+00
  0.00000000E+00  0.00000000E+00  0.00000000E+00
  0.00000000E+00  0.00000000E+00  0.00000000E+00
  0.00000000E+00  0.00000000E+00  0.00000000E+00
  0.00000000E+00  0.00000000E+00  0.00000000E+00
  0.00000000E+00  0.00000000E+00  0.00000000E+00
  0.00000000E+00  0.00000000E+00  0.00000000E+00
  0.00000000E+00  0.00000000E+00  0.00000000E+00
  0.00000000E+00  0.00000000E+00  0.00000000E+00
  0.00000000E+00  0.00000000E+00  0.00000000E+00
  0.00000000E+00  0.00000000E+00  0.00000000E+00
  0.00000000E+00  0.00000000E+00  0.00000000E+00
  0.00000000E+00  0.00000000E+00  0.00000000E+00
  0.00000000E+00  0.00000000E+00  0.00000000E+00
  0.00000000E+00  0.00000000E+00  0.00000000E+00
  0.00000000E+00  0.00000000E+00  0.00000000E+00
  0.00000000E+00  0.00000000E+00  0.00000000E+00
  0.00000000E+00  0.00000000E+00  0.00000000E+00
  0.00000000E+00  0.00000000E+00  0.00000000E+00
  0.00000000E+00  0.00000000E+00  0.00000000E+00
  0.00000000E+00  0.00000000E+00  0.00000000E+00
  0.00000000E+00  0.00000000E+00  0.00000000E+00
  0.00000000E+00  0.00000000E+00  0.00000000E+00
  0.00000000E+00  0.00000000E+00  0.00000000E+00
  0.00000000E+00  0.00000000E+00  0.00000000E+00
  0.00000000E+00  0.00000000E+00  0.00000000E+00
  0.00000000E+00  0.00000000E+00  0.00000000E+00
  0.00000000E+00  0.00000000E+00  0.00000000E+00
  0.00000000E+00  0.00000000E+00  0.00000000E+00
  0.00000000E+00  0.00000000E+00  0.00000000E+00
  0.00000000E+00  0.00000000E+00  0.00000000E+00
  0.00000000E+00  0.00000000E+00  0.00000000E+00
  0.00000000E+00  0.00000000E+00  0.00000000E+00
  0.00000000E+00  0.00000000E+00  0.00000000E+00
  0.00000000E+00  0.00000000E+00  0.00000000E+00
  0.00000000E+00  0.00000000E+00  0.00000000E+00
  0.00000000E+00  0.00000000E+00  0.00000000E+00
  0.00000000E+00  0.00000000E+00  0.00000000E+00
  0.00000000E+00  0.00000000E+00  0.00000000E+00
  0.00000000E+00  0.00000000E+00  0.00000000E+00
  0.00000000E+00  0.00000000E+00  0.00000000E+00
  0.00000000E+00  0.00000000E+00  0.00000000E+00
  0.00000000E+00  0.00000000E+00  0.00000000E+00
  0.00000000E+00  0.00000000E+00  0.00000000E+00
  0.00000000E+00  0.00000000E+00  0.00000000E+00
  0.00000000E+00  0.00000000E+00  0.00000000E+00
  0.00000000E+00  0.00000000E+00  0.00000000E+00
  0.00000000E+00  0.00000000E+00  0.00000000E+00
  0.00000000E+00  0.00000000E+00  0.00000000E+00
  0.00000000E+00  0.00000000E+00  0.00000000E+00
  0.00000000E+00  0.00000000E+00  0.00000000E+00
  0.00000000E+00  0.00000000E+00  0.00000000E+00
  0.00000000E+00  0.00000000E+00  0.00000000E+00
  0.00000000E+00  0.00000000E+00  0.00000000E+00
  0.00000000E+00  0.00000000E+00  0.00000000E+00
  0.00000000E+00  0.00000000E+00  0.00000000E+00
  0.00000000E+00  0.00000000E+00  0.00000000E+00
  0.00000000E+00  0.00000000E+00  0.00000000E+00
  0.00000000E+00  0.00000000E+00  0.00000000E+00
  0.00000000E+00  0.00000000E+00  0.00000000E+00
  0.00000000E+00  0.00000000E+00  0.00000000E+00
  0.00000000E+00  0.00000000E+00  0.00000000E+00
  0.00000000E+00  0.00000000E+00  0.00000000E+00
  0.00000000E+00  0.00000000E+00  0.00000000E+00
  0.00000000E+00  0.00000000E+00  0.00000000E+00
  0.00000000E+00  0.00000000E+00  0.00000000E+00
  0.00000000E+00  0.00000000E+00  0.00000000E+00
  0.00000000E+00  0.00000000E+00  0.00000000E+00
  0.00000000E+00  0.00000000E+00  0.00000000E+00
  0.00000000E+00  0.00000000E+00  0.00000000E+00
  0.00000000E+00  0.00000000E+00  0.00000000E+00
  0.00000000E+00  0.00000000E+00  0.00000000E+00
  0.00000000E+00  0.00000000E+00  0.00000000E+00
  0.00000000E+00  0.00000000E+00  0.00000000E+00
  0.00000000E+00  0.00000000E+00  0.00000000E+00
  0.00000000E+00  0.00000000E+00  0.00000000E+00
  0.00000000E+00  0.00000000E+00  0.00000000E+00
  0.00000000E+00  0.00000000E+00  0.00000000E+00
  0.00000000E+00  0.00000000E+00  0.00000000E+00
  0.00000000E+00  0.00000000E+00  0.00000000E+00
  0.00000000E+00  0.00000000E+00  0.00000000E+00
  0.00000000E+00  0.00000000E+00  0.00000000E+00
  0.00000000E+00  0.00000000E+00  0.00000000E+00
  0.00000000E+00  0.00000000E+00  0.00000000E+00
  0.00000000E+00  0.00000000E+00  0.00000000E+00
  0.00000000E+00  0.00000000E+00  0.00000000E+00
  0.00000000E+00  0.00000000E+00  0.00000000E+00
  0.00000000E+00  0.00000000E+00  0.00000000E+00
  0.00000000E+00  0.00000000E+00  0.00000000E+00
  0.00000000E+00  0.00000000E+00  0.00000000E+00
  0.00000000E+00  0.00000000E+00  0.00000000E+00
  0.00000000E+00  0.00000000E+00  0.00000000E+00
  0.00000000E+00  0.00000000E+00  0.00000000E+00
  0.00000000E+00  0.00000000E+00  0.00000000E+00
  0.00000000E+00  0.00000000E+00  0.00000000E+00
  0.00000000E+00  0.00000000E+00  0.00000000E+00
  0.00000000E+00  0.00000000E+00  0.00000000E+00
  0.00000000E+00  0.00000000E+00  0.00000000E+00
  0.00000000E+00  0.00000000E+00  0.00000000E+00
  0.00000000E+00  0.00000000E+00  0.00000000E+00
  0.00000000E+00  0.00000000E+00  0.00000000E+00
  0.00000000E+00  0.00000000E+00  0.00000000E+00
  0.00000000E+00  0.00000000E+00  0.00000000E+00
  0.00000000E+00  0.00000000E+00  0.00000000E+00
  0.00000000E+00  0.00000000E+00  0.00000000E+00
  0.00000000E+00  0.00000000E+00  0.00000000E+00
  0.00000000E+00  0.00000000E+00  0.00000000E+00
  0.00000000E+00  0.00000000E+00  0.00000000E+00
