Ga Fe  O
   1.00000000000000
    11.8609006217508721    0.0000000000000000   -2.9126240731473736
     0.0000000000000000   12.1318613217336004    0.0000000000000000
     0.0000000000000000    0.0000000000000000   11.5777857733786895
   Ga   Fe   O
    63     1    96
Direct
  0.0899931849229848  0.9999135399250407  0.3962319464368640
  0.4108418170729083  0.6250697875373143  0.6037800243452304
  0.5893295367861716  0.6250530335747707  0.8961120420673608
  0.1596888311526361  0.6249327282990891  0.6557271409491444
  0.8405386396722772  0.6249498713069732  0.8442537211383029
  0.9103077576377669  0.5000581516837149  0.6037492857179556
  0.0897715592386570  0.5001142108856662  0.8960317995868740
  0.8406066052892258  0.3752737968372374  0.8442257850352436
  0.9113367423907925  0.2500458595964647  0.6038786564448814
  0.0887973694230936  0.2500328141598843  0.8959075444234594
  0.8404893415918789  0.6249007228522768  0.3442300342004119
  0.6598186602503443  0.9998424934919956  0.6563976977479402
  0.1595893580830570  0.6249194236919529  0.1556547092107723
  0.0881262018559829  0.2500650697725282  0.3957250072855050
  0.9115163693949557  0.2500839449804798  0.1038754895584477
  0.8407200878012979  0.3753472719864542  0.3440272151383099
  0.1594899075718907  0.3753159478160863  0.1555129258710757
  0.5909744716658187  0.3757844738350600  0.3964712600239777
  0.4108076833867006  0.3755275978114289  0.1037791245675672
  0.6597775949740051  0.2503181948195233  0.1552875217922953
  0.4109666862087999  0.6250449642426908  0.1038568177954738
  0.3406851789770964  0.5008791544221404  0.3432922833243310
  0.5893443820645778  0.6250931005613110  0.3961180294977493
  0.3405252735296096 -0.0000104909592019  0.8439381099476105
  0.4112765447539124  0.1244683622690004  0.6050896114036218
  0.5893542726648625  0.1250604143927076  0.8961274611722263
  0.9101457116547792  0.9998966177860268  0.1036558008385048
  0.8407062213508134  0.1248374571150433  0.3439919996037464
  0.1593292981755897  0.1248189560483550  0.1554839745252186
  0.5910520924559302  0.1244358030501484  0.3964892329529390
  0.4108361618926329  0.1247798262849958  0.1037680951359624
  0.3406589953463969  0.9994035285904734  0.3432734747979084
  0.6597140371482593  0.0001826827928030  0.1560120550734391
  0.0900152699209427  0.5002067881461647  0.3961868274767401
  0.6597307017764201  0.5003759784412475  0.1560227857543050
  0.6599418430592395  0.2500584931315570  0.6554891535988131
  0.9102562735905667  0.5001949074761409  0.1037014770678066
  0.4112012623667009  0.3757409134116569  0.6049577886888243
  0.5894043766226544  0.3753095856815634  0.8961166227586261
  0.1596337080158910  0.3752627832088649  0.6556472593724701
  0.6598400247359590  0.5002620621194047  0.6563813249824696
  0.3405350382953158  0.5001583975188755  0.8439486496491123
  0.0897511099896344  0.9999564817769538  0.8960736790233237
  0.9102271669230910  0.0000194454393091  0.6037235049339639
  0.8405703813491239  0.1248876422748009  0.8442403394572477
  0.1595891002612845  0.1248713093044640  0.6556445929398592
  0.3402893713937066  0.2500772086904173  0.8448057937530150
  0.0887867293419427  0.7500728023559032  0.3960106579235788
  0.9112635895652217  0.7500542683022544  0.1039905559356463
  0.8404826962041689  0.8752392152211408  0.3442498241184758
  0.1594978270769223  0.8752483550510518  0.1556981771412055
  0.5893965684758106  0.8752546207241938  0.3961478283030085
  0.4108848224089093  0.8752995486973009  0.1038587570632618
  0.3403752288292831  0.7502934440496517  0.3445355477522295
  0.6597902291779341  0.7503130529646002  0.1554636205129297
  0.0888653449915787  0.7500338353139259  0.8960538181088538
  0.9112790721836981  0.7500253857755088  0.6039445022660398
  0.8405494426603514  0.8751679260888316  0.8442380741608683
  0.1595974448364955  0.8752346446747067  0.6558104660326776
  0.5894329345201992  0.8753349367246186  0.8961317156842386
  0.4107169206470365  0.8752312296452185  0.6038067440741542
  0.3404583758781449  0.7501078242441495  0.8445716171303534
  0.6597398165467028  0.7500656263543933  0.6553927581848650
  0.3412305515528142  0.2499854750011326  0.3461880036376475
  0.6725279915861777  0.3754448962350674  0.7807805753904377
  0.3276416195669677  0.3754708950681712  0.7195553557557843
  0.5028223057455851  0.2502166425772328  0.8721250236290355
  0.1640651733788730  0.5002547235639235  0.0526860875721872
  0.4975190729315653  0.5002509530214412  0.1277012616995633
  0.9972531766202397  0.6245516660551420  0.1276541829779492
  0.5028598892121500  0.5001398854415645  0.8721453054961199
  0.4976595077698781  0.5003855226316879  0.6282658016495065
  0.3360806673596661  0.6245155898064229  0.9470844306727880
  0.6641023453733871  0.6244942855859462  0.5529295144817825
  0.1724612750603333  0.5001218805404455  0.7804660625913283
  0.8278096178169015  0.5001030138172903  0.7195259311123708
  0.0028130869363010  0.6245239623390669  0.8720680825501558
  0.9972924415419120  0.6244640434590090  0.6276400559168427
  0.8357276935644661  0.5001323208816204  0.9469776437458088
  0.1643604727327179  0.5001295063399813  0.5529514056772833
  0.6724910478278505  0.6247191189842982  0.2807883095472825
  0.3277784489481934  0.6249280548583576  0.2191504469104374
  0.5031633965117015  0.4999482710478098  0.3722903395930627
  0.4971304745451960  0.2501344774350253  0.6272169808628630
  0.3361944820134146  0.6248609124929495  0.4470096172237621
  0.6641266115545302  0.6247157356427862  0.0528664666053602
  0.1724031767527602  0.5003253489256899  0.2804894611155154
  0.8277747539540360  0.5002671294063885  0.2193909848522821
  0.0028455274077201  0.6244930121753214  0.3722700789076378
  0.8356439871515190  0.5000529354986176  0.4470849731271462
  0.3359875274814043  0.3757752850222637  0.9470438139892986
  0.6729455963239770  0.3758145348451085  0.2804223831204912
  0.1724465999777912  0.2500509709034832  0.7807336365197257
  0.1724193404940703 -0.0000058038000334  0.7804973989815867
  0.8277846071843616  0.9999601263843040  0.7195416250941257
  0.0028463442513274  0.1244294192622829  0.8720249903820322
  0.9972476020873839  0.1244277873351001  0.6276285269093532
  0.8356584948262530  0.0000122752185128  0.9469476115432878
  0.1642810683719348  0.9999936938073771  0.5530063436445276
  0.6729452617684876  0.1244992473606503  0.2804014831606029
  0.3272642618858677  0.1227492757598878  0.2182898618539861
  0.6646479015027970  0.1241492649073680  0.5534188576016340
  0.5031598405089551  0.0003251687276686  0.3723092418705083
  0.3356416130929999  0.1224240947776252  0.4485978662395461
  0.6641060108228910  0.1247076291308642  0.0528287683766640
  0.1723600209546770  0.9999730639863247  0.2805179202303387
  0.8277426801819047  0.9999797263332335  0.2193955507023345
  0.0027697751711811  0.1241861728990618  0.3723862189520910
  0.9970115717997926  0.1242484718232862  0.1272659134112505
  0.8355878023080571  0.0000936450612227  0.4470573289613108
  0.1640134381938693  0.9998549369160427  0.0527290717551139
  0.4975071293636094  0.0000349559227874  0.1277215489491479
  0.3359990098052428  0.1243919977831258  0.9470324578773831
  0.4976675497151967  0.9997904032691903  0.6282656763749415
  0.5028758498729795  0.0001607383808695  0.8721603716149666
  0.8277416325104846  0.2500473165633035  0.7190669895475971
  0.0028746286188701  0.3756503610943580  0.8720126105601174
  0.9972990833787857  0.3756445795441274  0.6276546027629689
  0.8364622044296213  0.2501269127087848  0.9469850782357410
  0.1637844472741425  0.2500879150449711  0.5526026887914129
  0.3277534004135019  0.6246200161593510  0.7192082123325719
  0.3272610890593686  0.3774331719539886  0.2182789390197441
  0.5058394780183653  0.2500891565061728  0.3731421208364575
  0.4971111905718562  0.2501915084035702  0.1278680302554930
  0.3357173011348345  0.3777727756621077  0.4484516589723778
  0.6641280634620809  0.3758751587704644  0.0528203102000563
  0.1699808893971249  0.2500937556445727  0.2793654512027444
  0.8278474466777905  0.2501680597111691  0.2189951343065506
  0.0027765495902719  0.3759616186322112  0.3723335308599318
  0.9971208102227720  0.3758583079988358  0.1273177803237969
  0.8363557853287983  0.2500967144203693  0.4469883965442306
  0.1639970960462283  0.2500357471276596  0.0526331857803931
  0.6724860982162197  0.1247342743629944  0.7807762705677228
  0.3276320574515574  0.1245859772213909  0.7195943548806290
  0.6646261976289267  0.3759413146881362  0.5533902187340033
  0.6725370892264236  0.6246900989786413  0.7808176260222339
  0.1638903334029342  0.7501021895723560  0.0528733109764147
  0.8362796173867558  0.7500605368322096  0.4471067709988820
  0.9972046350723602  0.8755843273853290  0.1277553019264588
  0.0028074859593618  0.8756308036603588  0.3723147886443735
  0.8276061695502124  0.7501138523786497  0.2190890651198862
  0.1724532988642970  0.7502091951020234  0.2808761072990407
  0.6642324813834924  0.8758817800691919  0.0528698411467630
  0.3360813022271467  0.8756897707868929  0.4470559879142600
  0.4973367656251151  0.7502411146321890  0.1276598868123781
  0.5029106601019439  0.7502288314093437  0.3722769738315763
  0.3277634581611073  0.8753754693192647  0.2192108524983502
  0.6725047370438387  0.8755820815133063  0.2807819938297146
  0.1639184916415060  0.7501328542838396  0.5528863387040467
  0.8362820124374680  0.7500842884907867  0.9471030645315223
  0.9972252257958655  0.8756213236116908  0.6277157283617362
  0.0028000587436588  0.8755428372339645  0.8721700633365791
  0.8276072701047478  0.7499902893867717  0.7190631867050854
  0.1725415935212556  0.7500759012620443  0.7809076706907794
  0.6641929106978868  0.8756526284624806  0.5529358188920055
  0.3360032557000852  0.8757039194369689  0.9471076796693252
  0.4972857851361090  0.7502148493476694  0.6276642689272114
  0.5029245686098845  0.7502550093149989  0.8723666289042832
  0.3276939013079733  0.8755141647365638  0.7192558328134750
  0.6725792445550837  0.8754441241335292  0.7808104065275547

  0.00000000E+00  0.00000000E+00  0.00000000E+00
  0.00000000E+00  0.00000000E+00  0.00000000E+00
  0.00000000E+00  0.00000000E+00  0.00000000E+00
  0.00000000E+00  0.00000000E+00  0.00000000E+00
  0.00000000E+00  0.00000000E+00  0.00000000E+00
  0.00000000E+00  0.00000000E+00  0.00000000E+00
  0.00000000E+00  0.00000000E+00  0.00000000E+00
  0.00000000E+00  0.00000000E+00  0.00000000E+00
  0.00000000E+00  0.00000000E+00  0.00000000E+00
  0.00000000E+00  0.00000000E+00  0.00000000E+00
  0.00000000E+00  0.00000000E+00  0.00000000E+00
  0.00000000E+00  0.00000000E+00  0.00000000E+00
  0.00000000E+00  0.00000000E+00  0.00000000E+00
  0.00000000E+00  0.00000000E+00  0.00000000E+00
  0.00000000E+00  0.00000000E+00  0.00000000E+00
  0.00000000E+00  0.00000000E+00  0.00000000E+00
  0.00000000E+00  0.00000000E+00  0.00000000E+00
  0.00000000E+00  0.00000000E+00  0.00000000E+00
  0.00000000E+00  0.00000000E+00  0.00000000E+00
  0.00000000E+00  0.00000000E+00  0.00000000E+00
  0.00000000E+00  0.00000000E+00  0.00000000E+00
  0.00000000E+00  0.00000000E+00  0.00000000E+00
  0.00000000E+00  0.00000000E+00  0.00000000E+00
  0.00000000E+00  0.00000000E+00  0.00000000E+00
  0.00000000E+00  0.00000000E+00  0.00000000E+00
  0.00000000E+00  0.00000000E+00  0.00000000E+00
  0.00000000E+00  0.00000000E+00  0.00000000E+00
  0.00000000E+00  0.00000000E+00  0.00000000E+00
  0.00000000E+00  0.00000000E+00  0.00000000E+00
  0.00000000E+00  0.00000000E+00  0.00000000E+00
  0.00000000E+00  0.00000000E+00  0.00000000E+00
  0.00000000E+00  0.00000000E+00  0.00000000E+00
  0.00000000E+00  0.00000000E+00  0.00000000E+00
  0.00000000E+00  0.00000000E+00  0.00000000E+00
  0.00000000E+00  0.00000000E+00  0.00000000E+00
  0.00000000E+00  0.00000000E+00  0.00000000E+00
  0.00000000E+00  0.00000000E+00  0.00000000E+00
  0.00000000E+00  0.00000000E+00  0.00000000E+00
  0.00000000E+00  0.00000000E+00  0.00000000E+00
  0.00000000E+00  0.00000000E+00  0.00000000E+00
  0.00000000E+00  0.00000000E+00  0.00000000E+00
  0.00000000E+00  0.00000000E+00  0.00000000E+00
  0.00000000E+00  0.00000000E+00  0.00000000E+00
  0.00000000E+00  0.00000000E+00  0.00000000E+00
  0.00000000E+00  0.00000000E+00  0.00000000E+00
  0.00000000E+00  0.00000000E+00  0.00000000E+00
  0.00000000E+00  0.00000000E+00  0.00000000E+00
  0.00000000E+00  0.00000000E+00  0.00000000E+00
  0.00000000E+00  0.00000000E+00  0.00000000E+00
  0.00000000E+00  0.00000000E+00  0.00000000E+00
  0.00000000E+00  0.00000000E+00  0.00000000E+00
  0.00000000E+00  0.00000000E+00  0.00000000E+00
  0.00000000E+00  0.00000000E+00  0.00000000E+00
  0.00000000E+00  0.00000000E+00  0.00000000E+00
  0.00000000E+00  0.00000000E+00  0.00000000E+00
  0.00000000E+00  0.00000000E+00  0.00000000E+00
  0.00000000E+00  0.00000000E+00  0.00000000E+00
  0.00000000E+00  0.00000000E+00  0.00000000E+00
  0.00000000E+00  0.00000000E+00  0.00000000E+00
  0.00000000E+00  0.00000000E+00  0.00000000E+00
  0.00000000E+00  0.00000000E+00  0.00000000E+00
  0.00000000E+00  0.00000000E+00  0.00000000E+00
  0.00000000E+00  0.00000000E+00  0.00000000E+00
  0.00000000E+00  0.00000000E+00  0.00000000E+00
  0.00000000E+00  0.00000000E+00  0.00000000E+00
  0.00000000E+00  0.00000000E+00  0.00000000E+00
  0.00000000E+00  0.00000000E+00  0.00000000E+00
  0.00000000E+00  0.00000000E+00  0.00000000E+00
  0.00000000E+00  0.00000000E+00  0.00000000E+00
  0.00000000E+00  0.00000000E+00  0.00000000E+00
  0.00000000E+00  0.00000000E+00  0.00000000E+00
  0.00000000E+00  0.00000000E+00  0.00000000E+00
  0.00000000E+00  0.00000000E+00  0.00000000E+00
  0.00000000E+00  0.00000000E+00  0.00000000E+00
  0.00000000E+00  0.00000000E+00  0.00000000E+00
  0.00000000E+00  0.00000000E+00  0.00000000E+00
  0.00000000E+00  0.00000000E+00  0.00000000E+00
  0.00000000E+00  0.00000000E+00  0.00000000E+00
  0.00000000E+00  0.00000000E+00  0.00000000E+00
  0.00000000E+00  0.00000000E+00  0.00000000E+00
  0.00000000E+00  0.00000000E+00  0.00000000E+00
  0.00000000E+00  0.00000000E+00  0.00000000E+00
  0.00000000E+00  0.00000000E+00  0.00000000E+00
  0.00000000E+00  0.00000000E+00  0.00000000E+00
  0.00000000E+00  0.00000000E+00  0.00000000E+00
  0.00000000E+00  0.00000000E+00  0.00000000E+00
  0.00000000E+00  0.00000000E+00  0.00000000E+00
  0.00000000E+00  0.00000000E+00  0.00000000E+00
  0.00000000E+00  0.00000000E+00  0.00000000E+00
  0.00000000E+00  0.00000000E+00  0.00000000E+00
  0.00000000E+00  0.00000000E+00  0.00000000E+00
  0.00000000E+00  0.00000000E+00  0.00000000E+00
  0.00000000E+00  0.00000000E+00  0.00000000E+00
  0.00000000E+00  0.00000000E+00  0.00000000E+00
  0.00000000E+00  0.00000000E+00  0.00000000E+00
  0.00000000E+00  0.00000000E+00  0.00000000E+00
  0.00000000E+00  0.00000000E+00  0.00000000E+00
  0.00000000E+00  0.00000000E+00  0.00000000E+00
  0.00000000E+00  0.00000000E+00  0.00000000E+00
  0.00000000E+00  0.00000000E+00  0.00000000E+00
  0.00000000E+00  0.00000000E+00  0.00000000E+00
  0.00000000E+00  0.00000000E+00  0.00000000E+00
  0.00000000E+00  0.00000000E+00  0.00000000E+00
  0.00000000E+00  0.00000000E+00  0.00000000E+00
  0.00000000E+00  0.00000000E+00  0.00000000E+00
  0.00000000E+00  0.00000000E+00  0.00000000E+00
  0.00000000E+00  0.00000000E+00  0.00000000E+00
  0.00000000E+00  0.00000000E+00  0.00000000E+00
  0.00000000E+00  0.00000000E+00  0.00000000E+00
  0.00000000E+00  0.00000000E+00  0.00000000E+00
  0.00000000E+00  0.00000000E+00  0.00000000E+00
  0.00000000E+00  0.00000000E+00  0.00000000E+00
  0.00000000E+00  0.00000000E+00  0.00000000E+00
  0.00000000E+00  0.00000000E+00  0.00000000E+00
  0.00000000E+00  0.00000000E+00  0.00000000E+00
  0.00000000E+00  0.00000000E+00  0.00000000E+00
  0.00000000E+00  0.00000000E+00  0.00000000E+00
  0.00000000E+00  0.00000000E+00  0.00000000E+00
  0.00000000E+00  0.00000000E+00  0.00000000E+00
  0.00000000E+00  0.00000000E+00  0.00000000E+00
  0.00000000E+00  0.00000000E+00  0.00000000E+00
  0.00000000E+00  0.00000000E+00  0.00000000E+00
  0.00000000E+00  0.00000000E+00  0.00000000E+00
  0.00000000E+00  0.00000000E+00  0.00000000E+00
  0.00000000E+00  0.00000000E+00  0.00000000E+00
  0.00000000E+00  0.00000000E+00  0.00000000E+00
  0.00000000E+00  0.00000000E+00  0.00000000E+00
  0.00000000E+00  0.00000000E+00  0.00000000E+00
  0.00000000E+00  0.00000000E+00  0.00000000E+00
  0.00000000E+00  0.00000000E+00  0.00000000E+00
  0.00000000E+00  0.00000000E+00  0.00000000E+00
  0.00000000E+00  0.00000000E+00  0.00000000E+00
  0.00000000E+00  0.00000000E+00  0.00000000E+00
  0.00000000E+00  0.00000000E+00  0.00000000E+00
  0.00000000E+00  0.00000000E+00  0.00000000E+00
  0.00000000E+00  0.00000000E+00  0.00000000E+00
  0.00000000E+00  0.00000000E+00  0.00000000E+00
  0.00000000E+00  0.00000000E+00  0.00000000E+00
  0.00000000E+00  0.00000000E+00  0.00000000E+00
  0.00000000E+00  0.00000000E+00  0.00000000E+00
  0.00000000E+00  0.00000000E+00  0.00000000E+00
  0.00000000E+00  0.00000000E+00  0.00000000E+00
  0.00000000E+00  0.00000000E+00  0.00000000E+00
  0.00000000E+00  0.00000000E+00  0.00000000E+00
  0.00000000E+00  0.00000000E+00  0.00000000E+00
  0.00000000E+00  0.00000000E+00  0.00000000E+00
  0.00000000E+00  0.00000000E+00  0.00000000E+00
  0.00000000E+00  0.00000000E+00  0.00000000E+00
  0.00000000E+00  0.00000000E+00  0.00000000E+00
  0.00000000E+00  0.00000000E+00  0.00000000E+00
  0.00000000E+00  0.00000000E+00  0.00000000E+00
  0.00000000E+00  0.00000000E+00  0.00000000E+00
  0.00000000E+00  0.00000000E+00  0.00000000E+00
  0.00000000E+00  0.00000000E+00  0.00000000E+00
  0.00000000E+00  0.00000000E+00  0.00000000E+00
  0.00000000E+00  0.00000000E+00  0.00000000E+00
  0.00000000E+00  0.00000000E+00  0.00000000E+00
  0.00000000E+00  0.00000000E+00  0.00000000E+00
  0.00000000E+00  0.00000000E+00  0.00000000E+00
  0.00000000E+00  0.00000000E+00  0.00000000E+00
